** a cylinder cap (Q4) touching a block, half model
** written by python/scripts/make_contact_meshes.py
*NODE
1, 0, -0.02, 0
2, 0.001, -0.02, 0
3, 0.002, -0.02, 0
4, 0.0030000000000000001, -0.02, 0
5, 0.0040000000000000001, -0.02, 0
6, 0.0050000000000000001, -0.02, 0
7, 0.0060000000000000001, -0.02, 0
8, 0.0070000000000000001, -0.02, 0
9, 0.0080000000000000002, -0.02, 0
10, 0.0090000000000000011, -0.02, 0
11, 0.01, -0.02, 0
12, 0.010999999999999999, -0.02, 0
13, 0.012, -0.02, 0
14, 0.013000000000000001, -0.02, 0
15, 0.014, -0.02, 0
16, 0.014999999999999999, -0.02, 0
17, 0.016, -0.02, 0
18, 0.017000000000000001, -0.02, 0
19, 0.018000000000000002, -0.02, 0
20, 0.019, -0.02, 0
21, 0.02, -0.02, 0
22, 0, -0.018000000000000002, 0
23, 0.001, -0.018000000000000002, 0
24, 0.002, -0.018000000000000002, 0
25, 0.0030000000000000001, -0.018000000000000002, 0
26, 0.0040000000000000001, -0.018000000000000002, 0
27, 0.0050000000000000001, -0.018000000000000002, 0
28, 0.0060000000000000001, -0.018000000000000002, 0
29, 0.0070000000000000001, -0.018000000000000002, 0
30, 0.0080000000000000002, -0.018000000000000002, 0
31, 0.0090000000000000011, -0.018000000000000002, 0
32, 0.01, -0.018000000000000002, 0
33, 0.010999999999999999, -0.018000000000000002, 0
34, 0.012, -0.018000000000000002, 0
35, 0.013000000000000001, -0.018000000000000002, 0
36, 0.014, -0.018000000000000002, 0
37, 0.014999999999999999, -0.018000000000000002, 0
38, 0.016, -0.018000000000000002, 0
39, 0.017000000000000001, -0.018000000000000002, 0
40, 0.018000000000000002, -0.018000000000000002, 0
41, 0.019, -0.018000000000000002, 0
42, 0.02, -0.018000000000000002, 0
43, 0, -0.016, 0
44, 0.001, -0.016, 0
45, 0.002, -0.016, 0
46, 0.0030000000000000001, -0.016, 0
47, 0.0040000000000000001, -0.016, 0
48, 0.0050000000000000001, -0.016, 0
49, 0.0060000000000000001, -0.016, 0
50, 0.0070000000000000001, -0.016, 0
51, 0.0080000000000000002, -0.016, 0
52, 0.0090000000000000011, -0.016, 0
53, 0.01, -0.016, 0
54, 0.010999999999999999, -0.016, 0
55, 0.012, -0.016, 0
56, 0.013000000000000001, -0.016, 0
57, 0.014, -0.016, 0
58, 0.014999999999999999, -0.016, 0
59, 0.016, -0.016, 0
60, 0.017000000000000001, -0.016, 0
61, 0.018000000000000002, -0.016, 0
62, 0.019, -0.016, 0
63, 0.02, -0.016, 0
64, 0, -0.014, 0
65, 0.001, -0.014, 0
66, 0.002, -0.014, 0
67, 0.0030000000000000001, -0.014, 0
68, 0.0040000000000000001, -0.014, 0
69, 0.0050000000000000001, -0.014, 0
70, 0.0060000000000000001, -0.014, 0
71, 0.0070000000000000001, -0.014, 0
72, 0.0080000000000000002, -0.014, 0
73, 0.0090000000000000011, -0.014, 0
74, 0.01, -0.014, 0
75, 0.010999999999999999, -0.014, 0
76, 0.012, -0.014, 0
77, 0.013000000000000001, -0.014, 0
78, 0.014, -0.014, 0
79, 0.014999999999999999, -0.014, 0
80, 0.016, -0.014, 0
81, 0.017000000000000001, -0.014, 0
82, 0.018000000000000002, -0.014, 0
83, 0.019, -0.014, 0
84, 0.02, -0.014, 0
85, 0, -0.012, 0
86, 0.001, -0.012, 0
87, 0.002, -0.012, 0
88, 0.0030000000000000001, -0.012, 0
89, 0.0040000000000000001, -0.012, 0
90, 0.0050000000000000001, -0.012, 0
91, 0.0060000000000000001, -0.012, 0
92, 0.0070000000000000001, -0.012, 0
93, 0.0080000000000000002, -0.012, 0
94, 0.0090000000000000011, -0.012, 0
95, 0.01, -0.012, 0
96, 0.010999999999999999, -0.012, 0
97, 0.012, -0.012, 0
98, 0.013000000000000001, -0.012, 0
99, 0.014, -0.012, 0
100, 0.014999999999999999, -0.012, 0
101, 0.016, -0.012, 0
102, 0.017000000000000001, -0.012, 0
103, 0.018000000000000002, -0.012, 0
104, 0.019, -0.012, 0
105, 0.02, -0.012, 0
106, 0, -0.01, 0
107, 0.001, -0.01, 0
108, 0.002, -0.01, 0
109, 0.0030000000000000001, -0.01, 0
110, 0.0040000000000000001, -0.01, 0
111, 0.0050000000000000001, -0.01, 0
112, 0.0060000000000000001, -0.01, 0
113, 0.0070000000000000001, -0.01, 0
114, 0.0080000000000000002, -0.01, 0
115, 0.0090000000000000011, -0.01, 0
116, 0.01, -0.01, 0
117, 0.010999999999999999, -0.01, 0
118, 0.012, -0.01, 0
119, 0.013000000000000001, -0.01, 0
120, 0.014, -0.01, 0
121, 0.014999999999999999, -0.01, 0
122, 0.016, -0.01, 0
123, 0.017000000000000001, -0.01, 0
124, 0.018000000000000002, -0.01, 0
125, 0.019, -0.01, 0
126, 0.02, -0.01, 0
127, 0, -0.0080000000000000002, 0
128, 0.001, -0.0080000000000000002, 0
129, 0.002, -0.0080000000000000002, 0
130, 0.0030000000000000001, -0.0080000000000000002, 0
131, 0.0040000000000000001, -0.0080000000000000002, 0
132, 0.0050000000000000001, -0.0080000000000000002, 0
133, 0.0060000000000000001, -0.0080000000000000002, 0
134, 0.0070000000000000001, -0.0080000000000000002, 0
135, 0.0080000000000000002, -0.0080000000000000002, 0
136, 0.0090000000000000011, -0.0080000000000000002, 0
137, 0.01, -0.0080000000000000002, 0
138, 0.010999999999999999, -0.0080000000000000002, 0
139, 0.012, -0.0080000000000000002, 0
140, 0.013000000000000001, -0.0080000000000000002, 0
141, 0.014, -0.0080000000000000002, 0
142, 0.014999999999999999, -0.0080000000000000002, 0
143, 0.016, -0.0080000000000000002, 0
144, 0.017000000000000001, -0.0080000000000000002, 0
145, 0.018000000000000002, -0.0080000000000000002, 0
146, 0.019, -0.0080000000000000002, 0
147, 0.02, -0.0080000000000000002, 0
148, 0, -0.0059999999999999984, 0
149, 0.001, -0.0059999999999999984, 0
150, 0.002, -0.0059999999999999984, 0
151, 0.0030000000000000001, -0.0059999999999999984, 0
152, 0.0040000000000000001, -0.0059999999999999984, 0
153, 0.0050000000000000001, -0.0059999999999999984, 0
154, 0.0060000000000000001, -0.0059999999999999984, 0
155, 0.0070000000000000001, -0.0059999999999999984, 0
156, 0.0080000000000000002, -0.0059999999999999984, 0
157, 0.0090000000000000011, -0.0059999999999999984, 0
158, 0.01, -0.0059999999999999984, 0
159, 0.010999999999999999, -0.0059999999999999984, 0
160, 0.012, -0.0059999999999999984, 0
161, 0.013000000000000001, -0.0059999999999999984, 0
162, 0.014, -0.0059999999999999984, 0
163, 0.014999999999999999, -0.0059999999999999984, 0
164, 0.016, -0.0059999999999999984, 0
165, 0.017000000000000001, -0.0059999999999999984, 0
166, 0.018000000000000002, -0.0059999999999999984, 0
167, 0.019, -0.0059999999999999984, 0
168, 0.02, -0.0059999999999999984, 0
169, 0, -0.0040000000000000001, 0
170, 0.001, -0.0040000000000000001, 0
171, 0.002, -0.0040000000000000001, 0
172, 0.0030000000000000001, -0.0040000000000000001, 0
173, 0.0040000000000000001, -0.0040000000000000001, 0
174, 0.0050000000000000001, -0.0040000000000000001, 0
175, 0.0060000000000000001, -0.0040000000000000001, 0
176, 0.0070000000000000001, -0.0040000000000000001, 0
177, 0.0080000000000000002, -0.0040000000000000001, 0
178, 0.0090000000000000011, -0.0040000000000000001, 0
179, 0.01, -0.0040000000000000001, 0
180, 0.010999999999999999, -0.0040000000000000001, 0
181, 0.012, -0.0040000000000000001, 0
182, 0.013000000000000001, -0.0040000000000000001, 0
183, 0.014, -0.0040000000000000001, 0
184, 0.014999999999999999, -0.0040000000000000001, 0
185, 0.016, -0.0040000000000000001, 0
186, 0.017000000000000001, -0.0040000000000000001, 0
187, 0.018000000000000002, -0.0040000000000000001, 0
188, 0.019, -0.0040000000000000001, 0
189, 0.02, -0.0040000000000000001, 0
190, 0, -0.0020000000000000018, 0
191, 0.001, -0.0020000000000000018, 0
192, 0.002, -0.0020000000000000018, 0
193, 0.0030000000000000001, -0.0020000000000000018, 0
194, 0.0040000000000000001, -0.0020000000000000018, 0
195, 0.0050000000000000001, -0.0020000000000000018, 0
196, 0.0060000000000000001, -0.0020000000000000018, 0
197, 0.0070000000000000001, -0.0020000000000000018, 0
198, 0.0080000000000000002, -0.0020000000000000018, 0
199, 0.0090000000000000011, -0.0020000000000000018, 0
200, 0.01, -0.0020000000000000018, 0
201, 0.010999999999999999, -0.0020000000000000018, 0
202, 0.012, -0.0020000000000000018, 0
203, 0.013000000000000001, -0.0020000000000000018, 0
204, 0.014, -0.0020000000000000018, 0
205, 0.014999999999999999, -0.0020000000000000018, 0
206, 0.016, -0.0020000000000000018, 0
207, 0.017000000000000001, -0.0020000000000000018, 0
208, 0.018000000000000002, -0.0020000000000000018, 0
209, 0.019, -0.0020000000000000018, 0
210, 0.02, -0.0020000000000000018, 0
211, 0, 0, 0
212, 0.001, 0, 0
213, 0.002, 0, 0
214, 0.0030000000000000001, 0, 0
215, 0.0040000000000000001, 0, 0
216, 0.0050000000000000001, 0, 0
217, 0.0060000000000000001, 0, 0
218, 0.0070000000000000001, 0, 0
219, 0.0080000000000000002, 0, 0
220, 0.0090000000000000011, 0, 0
221, 0.01, 0, 0
222, 0.010999999999999999, 0, 0
223, 0.012, 0, 0
224, 0.013000000000000001, 0, 0
225, 0.014, 0, 0
226, 0.014999999999999999, 0, 0
227, 0.016, 0, 0
228, 0.017000000000000001, 0, 0
229, 0.018000000000000002, 0, 0
230, 0.019, 0, 0
231, 0.02, 0, 0
232, 0, 0, 0
233, 0.00076923076923076923, 5.9171632643684191e-07, 0
234, 0.0015384615384615385, 2.3668695073864043e-06, 0
235, 0.0023076923076923075, 5.3254721476547751e-06, 0
236, 0.0030769230769230769, 9.4675452557146933e-06, 0
237, 0.0038461538461538464, 1.4793118244649239e-05, 0
238, 0.0046153846153846149, 2.1302228932873479e-05, 0
239, 0.0053846153846153844, 2.8994923545855311e-05, 0
240, 0.0061538461538461538, 3.7871256717281199e-05, 0
241, 0.0069230769230769233, 4.7931291491554173e-05, 0
242, 0.0076923076923076927, 5.917509932551468e-05, 0
243, 0.0084615384615384613, 7.1602760091382667e-05, 0
244, 0.0092307692307692299, 8.5214362079200079e-05, 0
245, 0.01, 0.00010001000200049459, 0
246, 0.010769230769230769, 0.00011598978499116619, 0
247, 0.011538461538461539, 0.00013315382461553948, 0
248, 0.012307692307692308, 0.00015150224287041603, 0
249, 0.013076923076923076, 0.00017103517018918213, 0
250, 0.013846153846153847, 0.00019175274544674936, 0
251, 0.014615384615384615, 0.00021365511596421749, 0
252, 0.015384615384615385, 0.00023674243751425905, 0
253, 0.016153846153846154, 0.00026101487432672599, 0
254, 0.016923076923076923, 0.0002864725990944228, 0
255, 0.017692307692307691, 0.00031311579297910175, 0
256, 0.01846153846153846, 0.00034094464561823523, 0
257, 0.019230769230769232, 0.00036995935513151057, 0
258, 0.02, 0.00040016012812815749, 0
259, 0, 0.002, 0
260, 0.00076923076923076923, 0.0020005325446937933, 0
261, 0.0015384615384615385, 0.0020021301825566477, 0
262, 0.0023076923076923075, 0.0020047929249328894, 0
263, 0.0030769230769230769, 0.0020085207907301434, 0
264, 0.0038461538461538464, 0.0020133138064201842, 0
265, 0.0046153846153846149, 0.002019172006039586, 0
266, 0.0053846153846153844, 0.0020260954311912696, 0
267, 0.0061538461538461538, 0.0020340841310455531, 0
268, 0.0069230769230769233, 0.002043138162342399, 0
269, 0.0076923076923076927, 0.0020532575893929634, 0
270, 0.0084615384615384613, 0.0020644424840822444, 0
271, 0.0092307692307692299, 0.00207669292587128, 0
272, 0.01, 0.0020900090018004451, 0
273, 0.010769230769230769, 0.0021043908064920496, 0
274, 0.011538461538461539, 0.0021198384421539855, 0
275, 0.012307692307692308, 0.0021363520185833746, 0
276, 0.013076923076923076, 0.002153931653170264, 0
277, 0.013846153846153847, 0.0021725774709020745, 0
278, 0.014615384615384615, 0.0021922896043677959, 0
279, 0.015384615384615385, 0.0022130681937628334, 0
280, 0.016153846153846154, 0.0022349133868940535, 0
281, 0.016923076923076923, 0.0022578253391849806, 0
282, 0.017692307692307691, 0.0022818042136811918, 0
283, 0.01846153846153846, 0.0023068501810564117, 0
284, 0.019230769230769232, 0.0023329634196183596, 0
285, 0.02, 0.0023601441153153417, 0
286, 0, 0.0040000000000000001, 0
287, 0.00076923076923076923, 0.0040004733730611497, 0
288, 0.0015384615384615385, 0.004001893495605909, 0
289, 0.0023076923076923075, 0.0040042603777181241, 0
290, 0.0030769230769230769, 0.0040075740362045722, 0
291, 0.0038461538461538464, 0.0040118344945957191, 0
292, 0.0046153846153846149, 0.0040170417831462985, 0
293, 0.0053846153846153844, 0.004023195938836684, 0
294, 0.0061538461538461538, 0.004030297005373825, 0
295, 0.0069230769230769233, 0.0040383450331932438, 0
296, 0.0076923076923076927, 0.0040473400794604122, 0
297, 0.0084615384615384613, 0.0040572822080731062, 0
298, 0.0092307692307692299, 0.00406817148966336, 0
299, 0.01, 0.0040800080016003956, 0
300, 0.010769230769230769, 0.004092791827992933, 0
301, 0.011538461538461539, 0.0041065230596924315, 0
302, 0.012307692307692308, 0.0041212017942963333, 0
303, 0.013076923076923076, 0.0041368281361513458, 0
304, 0.013846153846153847, 0.0041534021963573996, 0
305, 0.014615384615384615, 0.0041709240927713742, 0
306, 0.015384615384615385, 0.0041893939500114077, 0
307, 0.016153846153846154, 0.004208811899461381, 0
308, 0.016923076923076923, 0.0042291780792755385, 0
309, 0.017692307692307691, 0.0042504926343832818, 0
310, 0.01846153846153846, 0.0042727557164945881, 0
311, 0.019230769230769232, 0.0042959674841052085, 0
312, 0.02, 0.0043201281025025259, 0
313, 0, 0.0060000000000000001, 0
314, 0.00076923076923076923, 0.0060004142014285057, 0
315, 0.0015384615384615385, 0.0060016568086551699, 0
316, 0.0023076923076923075, 0.0060037278305033583, 0
317, 0.0030769230769230769, 0.0060066272816790001, 0
318, 0.0038461538461538464, 0.0060103551827712541, 0
319, 0.0046153846153846149, 0.006014911560253011, 0
320, 0.0053846153846153844, 0.0060202964464820983, 0
321, 0.0061538461538461538, 0.006026509879702097, 0
322, 0.0069230769230769233, 0.0060335519040440877, 0
323, 0.0076923076923076927, 0.0060414225695278601, 0
324, 0.0084615384615384613, 0.006050121932063968, 0
325, 0.0092307692307692299, 0.0060596500534554395, 0
326, 0.01, 0.0060700070014003456, 0
327, 0.010769230769230769, 0.0060811928494938165, 0
328, 0.011538461538461539, 0.0060932076772308771, 0
329, 0.012307692307692308, 0.006106051570009291, 0
330, 0.013076923076923076, 0.0061197246191324276, 0
331, 0.013846153846153847, 0.0061342269218127247, 0
332, 0.014615384615384615, 0.0061495585811749522, 0
333, 0.015384615384615385, 0.0061657197062599811, 0
334, 0.016153846153846154, 0.0061827104120287081, 0
335, 0.016923076923076923, 0.0062005308193660959, 0
336, 0.017692307692307691, 0.006219181055085371, 0
337, 0.01846153846153846, 0.0062386612519327641, 0
338, 0.019230769230769232, 0.0062589715485920575, 0
339, 0.02, 0.0062801120896897097, 0
340, 0, 0.0080000000000000002, 0
341, 0.00076923076923076923, 0.0080003550297958626, 0
342, 0.0015384615384615385, 0.0080014201217044317, 0
343, 0.0023076923076923075, 0.0080031952832885934, 0
344, 0.0030769230769230769, 0.0080056805271534297, 0
345, 0.0038461538461538464, 0.008008875870946789, 0
346, 0.0046153846153846149, 0.0080127813373597236, 0
347, 0.0053846153846153844, 0.0080173969541275127, 0
348, 0.0061538461538461538, 0.0080227227540303689, 0
349, 0.0069230769230769233, 0.0080287587748949334, 0
350, 0.0076923076923076927, 0.0080355050595953097, 0
351, 0.0084615384615384613, 0.0080429616560548298, 0
352, 0.0092307692307692299, 0.0080511286172475199, 0
353, 0.01, 0.0080600060012002966, 0
354, 0.010769230769230769, 0.0080695938709946999, 0
355, 0.011538461538461539, 0.0080798922947693235, 0
356, 0.012307692307692308, 0.0080909013457222505, 0
357, 0.013076923076923076, 0.0081026211021135094, 0
358, 0.013846153846153847, 0.0081150516472680498, 0
359, 0.014615384615384615, 0.008128193069578531, 0
360, 0.015384615384615385, 0.0081420454625085563, 0
361, 0.016153846153846154, 0.0081566089245960361, 0
362, 0.016923076923076923, 0.0081718835594566542, 0
363, 0.017692307692307691, 0.0081878694757874619, 0
364, 0.01846153846153846, 0.008204566787370941, 0
365, 0.019230769230769232, 0.0082219756130789065, 0
366, 0.02, 0.0082400960768768943, 0
367, 0, 0.01, 0
368, 0.00076923076923076923, 0.010000295858163219, 0
369, 0.0015384615384615385, 0.010001183434753693, 0
370, 0.0023076923076923075, 0.010002662736073828, 0
371, 0.0030769230769230769, 0.010004733772627858, 0
372, 0.0038461538461538464, 0.010007396559122325, 0
373, 0.0046153846153846149, 0.010010651114466437, 0
374, 0.0053846153846153844, 0.010014497461772928, 0
375, 0.0061538461538461538, 0.010018935628358641, 0
376, 0.0069230769230769233, 0.010023965645745777, 0
377, 0.0076923076923076927, 0.010029587549662758, 0
378, 0.0084615384615384613, 0.010035801380045692, 0
379, 0.0092307692307692299, 0.0100426071810396, 0
380, 0.01, 0.010050005001000248, 0
381, 0.010769230769230769, 0.010057994892495583, 0
382, 0.011538461538461539, 0.01006657691230777, 0
383, 0.012307692307692308, 0.010075751121435208, 0
384, 0.013076923076923076, 0.010085517585094591, 0
385, 0.013846153846153847, 0.010095876372723375, 0
386, 0.014615384615384615, 0.010106827557982109, 0
387, 0.015384615384615385, 0.01011837121875713, 0
388, 0.016153846153846154, 0.010130507437163363, 0
389, 0.016923076923076923, 0.010143236299547212, 0
390, 0.017692307692307691, 0.010156557896489551, 0
391, 0.01846153846153846, 0.010170472322809118, 0
392, 0.019230769230769232, 0.010184979677565755, 0
393, 0.02, 0.010200080064064079, 0
394, 0, 0.012, 0
395, 0.00076923076923076923, 0.012000236686530575, 0
396, 0.0015384615384615385, 0.012000946747802953, 0
397, 0.0023076923076923075, 0.012002130188859062, 0
398, 0.0030769230769230769, 0.012003787018102285, 0
399, 0.0038461538461538464, 0.012005917247297859, 0
400, 0.0046153846153846149, 0.012008520891573149, 0
401, 0.0053846153846153844, 0.012011597969418341, 0
402, 0.0061538461538461538, 0.012015148502686913, 0
403, 0.0069230769230769233, 0.012019172516596621, 0
404, 0.0076923076923076927, 0.012023670039730205, 0
405, 0.0084615384615384613, 0.012028641104036553, 0
406, 0.0092307692307692299, 0.012034085744831679, 0
407, 0.01, 0.012040004000800197, 0
408, 0.010769230769230769, 0.012046395913996467, 0
409, 0.011538461538461539, 0.012053261529846215, 0
410, 0.012307692307692308, 0.012060600897148166, 0
411, 0.013076923076923076, 0.012068414068075673, 0
412, 0.013846153846153847, 0.0120767010981787, 0
413, 0.014615384615384615, 0.012085462046385687, 0
414, 0.015384615384615385, 0.012094696975005703, 0
415, 0.016153846153846154, 0.01210440594973069, 0
416, 0.016923076923076923, 0.012114589039637769, 0
417, 0.017692307692307691, 0.01212524631719164, 0
418, 0.01846153846153846, 0.012136377858247293, 0
419, 0.019230769230769232, 0.012147983742052604, 0
420, 0.02, 0.012160064051251262, 0
421, 0, 0.014000000000000002, 0
422, 0.00076923076923076923, 0.014000177514897932, 0
423, 0.0015384615384615385, 0.014000710060852217, 0
424, 0.0023076923076923075, 0.014001597641644298, 0
425, 0.0030769230769230769, 0.014002840263576715, 0
426, 0.0038461538461538464, 0.014004437935473396, 0
427, 0.0046153846153846149, 0.014006390668679864, 0
428, 0.0053846153846153844, 0.014008698477063758, 0
429, 0.0061538461538461538, 0.014011361377015186, 0
430, 0.0069230769230769233, 0.014014379387447467, 0
431, 0.0076923076923076927, 0.014017752529797655, 0
432, 0.0084615384615384613, 0.014021480828027417, 0
433, 0.0092307692307692299, 0.014025564308623761, 0
434, 0.01, 0.014030003000600149, 0
435, 0.010769230769230769, 0.014034796935497352, 0
436, 0.011538461538461539, 0.014039946147384663, 0
437, 0.012307692307692308, 0.014045450672861125, 0
438, 0.013076923076923076, 0.014051310551056757, 0
439, 0.013846153846153847, 0.014057525823634027, 0
440, 0.014615384615384615, 0.014064096534789267, 0
441, 0.015384615384615385, 0.014071022731254278, 0
442, 0.016153846153846154, 0.014078304462298019, 0
443, 0.016923076923076923, 0.014085941779728328, 0
444, 0.017692307692307691, 0.014093934737893731, 0
445, 0.01846153846153846, 0.014102283393685472, 0
446, 0.019230769230769232, 0.014110987806539455, 0
447, 0.02, 0.014120048038438448, 0
448, 0, 0.016, 0
449, 0.00076923076923076923, 0.016000118343265288, 0
450, 0.0015384615384615385, 0.016000473373901477, 0
451, 0.0023076923076923075, 0.016001065094429532, 0
452, 0.0030769230769230769, 0.016001893509051145, 0
453, 0.0038461538461538464, 0.016002958623648929, 0
454, 0.0046153846153846149, 0.016004260445786574, 0
455, 0.0053846153846153844, 0.01600579898470917, 0
456, 0.0061538461538461538, 0.016007574251343457, 0
457, 0.0069230769230769233, 0.016009586258298313, 0
458, 0.0076923076923076927, 0.016011835019865105, 0
459, 0.0084615384615384613, 0.016014320552018277, 0
460, 0.0092307692307692299, 0.01601704287241584, 0
461, 0.01, 0.016020002000400099, 0
462, 0.010769230769230769, 0.016023197956998234, 0
463, 0.011538461538461539, 0.016026630764923108, 0
464, 0.012307692307692308, 0.016030300448574085, 0
465, 0.013076923076923076, 0.016034207034037837, 0
466, 0.013846153846153847, 0.01603835054908935, 0
467, 0.014615384615384615, 0.016042731023192845, 0
468, 0.015384615384615385, 0.016047348487502854, 0
469, 0.016153846153846154, 0.016052202974865346, 0
470, 0.016923076923076923, 0.016057294519818886, 0
471, 0.017692307692307691, 0.016062623158595822, 0
472, 0.01846153846153846, 0.016068188929123647, 0
473, 0.019230769230769232, 0.016073991871026302, 0
474, 0.02, 0.016080032025625631, 0
475, 0, 0.017999999999999999, 0
476, 0.00076923076923076923, 0.018000059171632644, 0
477, 0.0015384615384615385, 0.018000236686950739, 0
478, 0.0023076923076923075, 0.018000532547214766, 0
479, 0.0030769230769230769, 0.018000946754525571, 0
480, 0.0038461538461538464, 0.018001479311824463, 0
481, 0.0046153846153846149, 0.018002130222893285, 0
482, 0.0053846153846153844, 0.018002899492354583, 0
483, 0.0061538461538461538, 0.018003787125671727, 0
484, 0.0069230769230769233, 0.018004793129149155, 0
485, 0.0076923076923076927, 0.018005917509932551, 0
486, 0.0084615384615384613, 0.018007160276009137, 0
487, 0.0092307692307692299, 0.01800852143620792, 0
488, 0.01, 0.018010001000200049, 0
489, 0.010769230769230769, 0.018011598978499115, 0
490, 0.011538461538461539, 0.018013315382461554, 0
491, 0.012307692307692308, 0.018015150224287041, 0
492, 0.013076923076923076, 0.018017103517018917, 0
493, 0.013846153846153847, 0.018019175274544674, 0
494, 0.014615384615384615, 0.018021365511596422, 0
495, 0.015384615384615385, 0.018023674243751425, 0
496, 0.016153846153846154, 0.018026101487432673, 0
497, 0.016923076923076923, 0.018028647259909443, 0
498, 0.017692307692307691, 0.01803131157929791, 0
499, 0.01846153846153846, 0.018034094464561824, 0
500, 0.019230769230769232, 0.01803699593551315, 0
501, 0.02, 0.018040016012812816, 0
502, 0, 0.02, 0
503, 0.00076923076923076923, 0.02, 0
504, 0.0015384615384615385, 0.02, 0
505, 0.0023076923076923075, 0.02, 0
506, 0.0030769230769230769, 0.02, 0
507, 0.0038461538461538464, 0.02, 0
508, 0.0046153846153846149, 0.02, 0
509, 0.0053846153846153844, 0.02, 0
510, 0.0061538461538461538, 0.02, 0
511, 0.0069230769230769233, 0.02, 0
512, 0.0076923076923076927, 0.02, 0
513, 0.0084615384615384613, 0.02, 0
514, 0.0092307692307692299, 0.02, 0
515, 0.01, 0.02, 0
516, 0.010769230769230769, 0.02, 0
517, 0.011538461538461539, 0.02, 0
518, 0.012307692307692308, 0.02, 0
519, 0.013076923076923076, 0.02, 0
520, 0.013846153846153847, 0.02, 0
521, 0.014615384615384615, 0.02, 0
522, 0.015384615384615385, 0.02, 0
523, 0.016153846153846154, 0.02, 0
524, 0.016923076923076923, 0.02, 0
525, 0.017692307692307691, 0.02, 0
526, 0.01846153846153846, 0.02, 0
527, 0.019230769230769232, 0.02, 0
528, 0.02, 0.02, 0
*ELEMENT, TYPE=CPE4, ELSET=BLOCK
1, 1, 2, 23, 22
2, 2, 3, 24, 23
3, 3, 4, 25, 24
4, 4, 5, 26, 25
5, 5, 6, 27, 26
6, 6, 7, 28, 27
7, 7, 8, 29, 28
8, 8, 9, 30, 29
9, 9, 10, 31, 30
10, 10, 11, 32, 31
11, 11, 12, 33, 32
12, 12, 13, 34, 33
13, 13, 14, 35, 34
14, 14, 15, 36, 35
15, 15, 16, 37, 36
16, 16, 17, 38, 37
17, 17, 18, 39, 38
18, 18, 19, 40, 39
19, 19, 20, 41, 40
20, 20, 21, 42, 41
21, 22, 23, 44, 43
22, 23, 24, 45, 44
23, 24, 25, 46, 45
24, 25, 26, 47, 46
25, 26, 27, 48, 47
26, 27, 28, 49, 48
27, 28, 29, 50, 49
28, 29, 30, 51, 50
29, 30, 31, 52, 51
30, 31, 32, 53, 52
31, 32, 33, 54, 53
32, 33, 34, 55, 54
33, 34, 35, 56, 55
34, 35, 36, 57, 56
35, 36, 37, 58, 57
36, 37, 38, 59, 58
37, 38, 39, 60, 59
38, 39, 40, 61, 60
39, 40, 41, 62, 61
40, 41, 42, 63, 62
41, 43, 44, 65, 64
42, 44, 45, 66, 65
43, 45, 46, 67, 66
44, 46, 47, 68, 67
45, 47, 48, 69, 68
46, 48, 49, 70, 69
47, 49, 50, 71, 70
48, 50, 51, 72, 71
49, 51, 52, 73, 72
50, 52, 53, 74, 73
51, 53, 54, 75, 74
52, 54, 55, 76, 75
53, 55, 56, 77, 76
54, 56, 57, 78, 77
55, 57, 58, 79, 78
56, 58, 59, 80, 79
57, 59, 60, 81, 80
58, 60, 61, 82, 81
59, 61, 62, 83, 82
60, 62, 63, 84, 83
61, 64, 65, 86, 85
62, 65, 66, 87, 86
63, 66, 67, 88, 87
64, 67, 68, 89, 88
65, 68, 69, 90, 89
66, 69, 70, 91, 90
67, 70, 71, 92, 91
68, 71, 72, 93, 92
69, 72, 73, 94, 93
70, 73, 74, 95, 94
71, 74, 75, 96, 95
72, 75, 76, 97, 96
73, 76, 77, 98, 97
74, 77, 78, 99, 98
75, 78, 79, 100, 99
76, 79, 80, 101, 100
77, 80, 81, 102, 101
78, 81, 82, 103, 102
79, 82, 83, 104, 103
80, 83, 84, 105, 104
81, 85, 86, 107, 106
82, 86, 87, 108, 107
83, 87, 88, 109, 108
84, 88, 89, 110, 109
85, 89, 90, 111, 110
86, 90, 91, 112, 111
87, 91, 92, 113, 112
88, 92, 93, 114, 113
89, 93, 94, 115, 114
90, 94, 95, 116, 115
91, 95, 96, 117, 116
92, 96, 97, 118, 117
93, 97, 98, 119, 118
94, 98, 99, 120, 119
95, 99, 100, 121, 120
96, 100, 101, 122, 121
97, 101, 102, 123, 122
98, 102, 103, 124, 123
99, 103, 104, 125, 124
100, 104, 105, 126, 125
101, 106, 107, 128, 127
102, 107, 108, 129, 128
103, 108, 109, 130, 129
104, 109, 110, 131, 130
105, 110, 111, 132, 131
106, 111, 112, 133, 132
107, 112, 113, 134, 133
108, 113, 114, 135, 134
109, 114, 115, 136, 135
110, 115, 116, 137, 136
111, 116, 117, 138, 137
112, 117, 118, 139, 138
113, 118, 119, 140, 139
114, 119, 120, 141, 140
115, 120, 121, 142, 141
116, 121, 122, 143, 142
117, 122, 123, 144, 143
118, 123, 124, 145, 144
119, 124, 125, 146, 145
120, 125, 126, 147, 146
121, 127, 128, 149, 148
122, 128, 129, 150, 149
123, 129, 130, 151, 150
124, 130, 131, 152, 151
125, 131, 132, 153, 152
126, 132, 133, 154, 153
127, 133, 134, 155, 154
128, 134, 135, 156, 155
129, 135, 136, 157, 156
130, 136, 137, 158, 157
131, 137, 138, 159, 158
132, 138, 139, 160, 159
133, 139, 140, 161, 160
134, 140, 141, 162, 161
135, 141, 142, 163, 162
136, 142, 143, 164, 163
137, 143, 144, 165, 164
138, 144, 145, 166, 165
139, 145, 146, 167, 166
140, 146, 147, 168, 167
141, 148, 149, 170, 169
142, 149, 150, 171, 170
143, 150, 151, 172, 171
144, 151, 152, 173, 172
145, 152, 153, 174, 173
146, 153, 154, 175, 174
147, 154, 155, 176, 175
148, 155, 156, 177, 176
149, 156, 157, 178, 177
150, 157, 158, 179, 178
151, 158, 159, 180, 179
152, 159, 160, 181, 180
153, 160, 161, 182, 181
154, 161, 162, 183, 182
155, 162, 163, 184, 183
156, 163, 164, 185, 184
157, 164, 165, 186, 185
158, 165, 166, 187, 186
159, 166, 167, 188, 187
160, 167, 168, 189, 188
161, 169, 170, 191, 190
162, 170, 171, 192, 191
163, 171, 172, 193, 192
164, 172, 173, 194, 193
165, 173, 174, 195, 194
166, 174, 175, 196, 195
167, 175, 176, 197, 196
168, 176, 177, 198, 197
169, 177, 178, 199, 198
170, 178, 179, 200, 199
171, 179, 180, 201, 200
172, 180, 181, 202, 201
173, 181, 182, 203, 202
174, 182, 183, 204, 203
175, 183, 184, 205, 204
176, 184, 185, 206, 205
177, 185, 186, 207, 206
178, 186, 187, 208, 207
179, 187, 188, 209, 208
180, 188, 189, 210, 209
181, 190, 191, 212, 211
182, 191, 192, 213, 212
183, 192, 193, 214, 213
184, 193, 194, 215, 214
185, 194, 195, 216, 215
186, 195, 196, 217, 216
187, 196, 197, 218, 217
188, 197, 198, 219, 218
189, 198, 199, 220, 219
190, 199, 200, 221, 220
191, 200, 201, 222, 221
192, 201, 202, 223, 222
193, 202, 203, 224, 223
194, 203, 204, 225, 224
195, 204, 205, 226, 225
196, 205, 206, 227, 226
197, 206, 207, 228, 227
198, 207, 208, 229, 228
199, 208, 209, 230, 229
200, 209, 210, 231, 230
*ELEMENT, TYPE=CPE4, ELSET=CAP
201, 232, 233, 260, 259
202, 233, 234, 261, 260
203, 234, 235, 262, 261
204, 235, 236, 263, 262
205, 236, 237, 264, 263
206, 237, 238, 265, 264
207, 238, 239, 266, 265
208, 239, 240, 267, 266
209, 240, 241, 268, 267
210, 241, 242, 269, 268
211, 242, 243, 270, 269
212, 243, 244, 271, 270
213, 244, 245, 272, 271
214, 245, 246, 273, 272
215, 246, 247, 274, 273
216, 247, 248, 275, 274
217, 248, 249, 276, 275
218, 249, 250, 277, 276
219, 250, 251, 278, 277
220, 251, 252, 279, 278
221, 252, 253, 280, 279
222, 253, 254, 281, 280
223, 254, 255, 282, 281
224, 255, 256, 283, 282
225, 256, 257, 284, 283
226, 257, 258, 285, 284
227, 259, 260, 287, 286
228, 260, 261, 288, 287
229, 261, 262, 289, 288
230, 262, 263, 290, 289
231, 263, 264, 291, 290
232, 264, 265, 292, 291
233, 265, 266, 293, 292
234, 266, 267, 294, 293
235, 267, 268, 295, 294
236, 268, 269, 296, 295
237, 269, 270, 297, 296
238, 270, 271, 298, 297
239, 271, 272, 299, 298
240, 272, 273, 300, 299
241, 273, 274, 301, 300
242, 274, 275, 302, 301
243, 275, 276, 303, 302
244, 276, 277, 304, 303
245, 277, 278, 305, 304
246, 278, 279, 306, 305
247, 279, 280, 307, 306
248, 280, 281, 308, 307
249, 281, 282, 309, 308
250, 282, 283, 310, 309
251, 283, 284, 311, 310
252, 284, 285, 312, 311
253, 286, 287, 314, 313
254, 287, 288, 315, 314
255, 288, 289, 316, 315
256, 289, 290, 317, 316
257, 290, 291, 318, 317
258, 291, 292, 319, 318
259, 292, 293, 320, 319
260, 293, 294, 321, 320
261, 294, 295, 322, 321
262, 295, 296, 323, 322
263, 296, 297, 324, 323
264, 297, 298, 325, 324
265, 298, 299, 326, 325
266, 299, 300, 327, 326
267, 300, 301, 328, 327
268, 301, 302, 329, 328
269, 302, 303, 330, 329
270, 303, 304, 331, 330
271, 304, 305, 332, 331
272, 305, 306, 333, 332
273, 306, 307, 334, 333
274, 307, 308, 335, 334
275, 308, 309, 336, 335
276, 309, 310, 337, 336
277, 310, 311, 338, 337
278, 311, 312, 339, 338
279, 313, 314, 341, 340
280, 314, 315, 342, 341
281, 315, 316, 343, 342
282, 316, 317, 344, 343
283, 317, 318, 345, 344
284, 318, 319, 346, 345
285, 319, 320, 347, 346
286, 320, 321, 348, 347
287, 321, 322, 349, 348
288, 322, 323, 350, 349
289, 323, 324, 351, 350
290, 324, 325, 352, 351
291, 325, 326, 353, 352
292, 326, 327, 354, 353
293, 327, 328, 355, 354
294, 328, 329, 356, 355
295, 329, 330, 357, 356
296, 330, 331, 358, 357
297, 331, 332, 359, 358
298, 332, 333, 360, 359
299, 333, 334, 361, 360
300, 334, 335, 362, 361
301, 335, 336, 363, 362
302, 336, 337, 364, 363
303, 337, 338, 365, 364
304, 338, 339, 366, 365
305, 340, 341, 368, 367
306, 341, 342, 369, 368
307, 342, 343, 370, 369
308, 343, 344, 371, 370
309, 344, 345, 372, 371
310, 345, 346, 373, 372
311, 346, 347, 374, 373
312, 347, 348, 375, 374
313, 348, 349, 376, 375
314, 349, 350, 377, 376
315, 350, 351, 378, 377
316, 351, 352, 379, 378
317, 352, 353, 380, 379
318, 353, 354, 381, 380
319, 354, 355, 382, 381
320, 355, 356, 383, 382
321, 356, 357, 384, 383
322, 357, 358, 385, 384
323, 358, 359, 386, 385
324, 359, 360, 387, 386
325, 360, 361, 388, 387
326, 361, 362, 389, 388
327, 362, 363, 390, 389
328, 363, 364, 391, 390
329, 364, 365, 392, 391
330, 365, 366, 393, 392
331, 367, 368, 395, 394
332, 368, 369, 396, 395
333, 369, 370, 397, 396
334, 370, 371, 398, 397
335, 371, 372, 399, 398
336, 372, 373, 400, 399
337, 373, 374, 401, 400
338, 374, 375, 402, 401
339, 375, 376, 403, 402
340, 376, 377, 404, 403
341, 377, 378, 405, 404
342, 378, 379, 406, 405
343, 379, 380, 407, 406
344, 380, 381, 408, 407
345, 381, 382, 409, 408
346, 382, 383, 410, 409
347, 383, 384, 411, 410
348, 384, 385, 412, 411
349, 385, 386, 413, 412
350, 386, 387, 414, 413
351, 387, 388, 415, 414
352, 388, 389, 416, 415
353, 389, 390, 417, 416
354, 390, 391, 418, 417
355, 391, 392, 419, 418
356, 392, 393, 420, 419
357, 394, 395, 422, 421
358, 395, 396, 423, 422
359, 396, 397, 424, 423
360, 397, 398, 425, 424
361, 398, 399, 426, 425
362, 399, 400, 427, 426
363, 400, 401, 428, 427
364, 401, 402, 429, 428
365, 402, 403, 430, 429
366, 403, 404, 431, 430
367, 404, 405, 432, 431
368, 405, 406, 433, 432
369, 406, 407, 434, 433
370, 407, 408, 435, 434
371, 408, 409, 436, 435
372, 409, 410, 437, 436
373, 410, 411, 438, 437
374, 411, 412, 439, 438
375, 412, 413, 440, 439
376, 413, 414, 441, 440
377, 414, 415, 442, 441
378, 415, 416, 443, 442
379, 416, 417, 444, 443
380, 417, 418, 445, 444
381, 418, 419, 446, 445
382, 419, 420, 447, 446
383, 421, 422, 449, 448
384, 422, 423, 450, 449
385, 423, 424, 451, 450
386, 424, 425, 452, 451
387, 425, 426, 453, 452
388, 426, 427, 454, 453
389, 427, 428, 455, 454
390, 428, 429, 456, 455
391, 429, 430, 457, 456
392, 430, 431, 458, 457
393, 431, 432, 459, 458
394, 432, 433, 460, 459
395, 433, 434, 461, 460
396, 434, 435, 462, 461
397, 435, 436, 463, 462
398, 436, 437, 464, 463
399, 437, 438, 465, 464
400, 438, 439, 466, 465
401, 439, 440, 467, 466
402, 440, 441, 468, 467
403, 441, 442, 469, 468
404, 442, 443, 470, 469
405, 443, 444, 471, 470
406, 444, 445, 472, 471
407, 445, 446, 473, 472
408, 446, 447, 474, 473
409, 448, 449, 476, 475
410, 449, 450, 477, 476
411, 450, 451, 478, 477
412, 451, 452, 479, 478
413, 452, 453, 480, 479
414, 453, 454, 481, 480
415, 454, 455, 482, 481
416, 455, 456, 483, 482
417, 456, 457, 484, 483
418, 457, 458, 485, 484
419, 458, 459, 486, 485
420, 459, 460, 487, 486
421, 460, 461, 488, 487
422, 461, 462, 489, 488
423, 462, 463, 490, 489
424, 463, 464, 491, 490
425, 464, 465, 492, 491
426, 465, 466, 493, 492
427, 466, 467, 494, 493
428, 467, 468, 495, 494
429, 468, 469, 496, 495
430, 469, 470, 497, 496
431, 470, 471, 498, 497
432, 471, 472, 499, 498
433, 472, 473, 500, 499
434, 473, 474, 501, 500
435, 475, 476, 503, 502
436, 476, 477, 504, 503
437, 477, 478, 505, 504
438, 478, 479, 506, 505
439, 479, 480, 507, 506
440, 480, 481, 508, 507
441, 481, 482, 509, 508
442, 482, 483, 510, 509
443, 483, 484, 511, 510
444, 484, 485, 512, 511
445, 485, 486, 513, 512
446, 486, 487, 514, 513
447, 487, 488, 515, 514
448, 488, 489, 516, 515
449, 489, 490, 517, 516
450, 490, 491, 518, 517
451, 491, 492, 519, 518
452, 492, 493, 520, 519
453, 493, 494, 521, 520
454, 494, 495, 522, 521
455, 495, 496, 523, 522
456, 496, 497, 524, 523
457, 497, 498, 525, 524
458, 498, 499, 526, 525
459, 499, 500, 527, 526
460, 500, 501, 528, 527
*NSET, NSET=block_top
211, 212, 213, 214, 215, 216, 217, 218, 219, 220, 221, 222, 223, 224, 225, 226
227, 228, 229, 230, 231
*NSET, NSET=block_bottom
1, 2, 3, 4, 5, 6, 7, 8, 9, 10, 11, 12, 13, 14, 15, 16
17, 18, 19, 20, 21
*NSET, NSET=cap_bottom
232, 233, 234, 235, 236, 237, 238, 239, 240, 241, 242, 243, 244, 245, 246, 247
248, 249, 250, 251, 252, 253, 254, 255, 256, 257, 258
*NSET, NSET=cap_top
502, 503, 504, 505, 506, 507, 508, 509, 510, 511, 512, 513, 514, 515, 516, 517
518, 519, 520, 521, 522, 523, 524, 525, 526, 527, 528
*NSET, NSET=sym_x
1, 22, 43, 64, 85, 106, 127, 148, 169, 190, 211, 232, 259, 286, 313, 340
367, 394, 421, 448, 475, 502
