** two Hex8 blocks 20 um apart, non-matching meshes
** written by python/scripts/make_contact_meshes.py
*NODE
1, 0, 0, 0
2, 0.050000000000000003, 0, 0
3, 0.10000000000000001, 0, 0
4, 0.15000000000000002, 0, 0
5, 0.20000000000000001, 0, 0
6, 0.25, 0, 0
7, 0.30000000000000004, 0, 0
8, 0.35000000000000003, 0, 0
9, 0.40000000000000002, 0, 0
10, 0, 0.050000000000000003, 0
11, 0.050000000000000003, 0.050000000000000003, 0
12, 0.10000000000000001, 0.050000000000000003, 0
13, 0.15000000000000002, 0.050000000000000003, 0
14, 0.20000000000000001, 0.050000000000000003, 0
15, 0.25, 0.050000000000000003, 0
16, 0.30000000000000004, 0.050000000000000003, 0
17, 0.35000000000000003, 0.050000000000000003, 0
18, 0.40000000000000002, 0.050000000000000003, 0
19, 0, 0.10000000000000001, 0
20, 0.050000000000000003, 0.10000000000000001, 0
21, 0.10000000000000001, 0.10000000000000001, 0
22, 0.15000000000000002, 0.10000000000000001, 0
23, 0.20000000000000001, 0.10000000000000001, 0
24, 0.25, 0.10000000000000001, 0
25, 0.30000000000000004, 0.10000000000000001, 0
26, 0.35000000000000003, 0.10000000000000001, 0
27, 0.40000000000000002, 0.10000000000000001, 0
28, 0, 0.15000000000000002, 0
29, 0.050000000000000003, 0.15000000000000002, 0
30, 0.10000000000000001, 0.15000000000000002, 0
31, 0.15000000000000002, 0.15000000000000002, 0
32, 0.20000000000000001, 0.15000000000000002, 0
33, 0.25, 0.15000000000000002, 0
34, 0.30000000000000004, 0.15000000000000002, 0
35, 0.35000000000000003, 0.15000000000000002, 0
36, 0.40000000000000002, 0.15000000000000002, 0
37, 0, 0.20000000000000001, 0
38, 0.050000000000000003, 0.20000000000000001, 0
39, 0.10000000000000001, 0.20000000000000001, 0
40, 0.15000000000000002, 0.20000000000000001, 0
41, 0.20000000000000001, 0.20000000000000001, 0
42, 0.25, 0.20000000000000001, 0
43, 0.30000000000000004, 0.20000000000000001, 0
44, 0.35000000000000003, 0.20000000000000001, 0
45, 0.40000000000000002, 0.20000000000000001, 0
46, 0, 0, 0.049999999999999996
47, 0.050000000000000003, 0, 0.049999999999999996
48, 0.10000000000000001, 0, 0.049999999999999996
49, 0.15000000000000002, 0, 0.049999999999999996
50, 0.20000000000000001, 0, 0.049999999999999996
51, 0.25, 0, 0.049999999999999996
52, 0.30000000000000004, 0, 0.049999999999999996
53, 0.35000000000000003, 0, 0.049999999999999996
54, 0.40000000000000002, 0, 0.049999999999999996
55, 0, 0.050000000000000003, 0.049999999999999996
56, 0.050000000000000003, 0.050000000000000003, 0.049999999999999996
57, 0.10000000000000001, 0.050000000000000003, 0.049999999999999996
58, 0.15000000000000002, 0.050000000000000003, 0.049999999999999996
59, 0.20000000000000001, 0.050000000000000003, 0.049999999999999996
60, 0.25, 0.050000000000000003, 0.049999999999999996
61, 0.30000000000000004, 0.050000000000000003, 0.049999999999999996
62, 0.35000000000000003, 0.050000000000000003, 0.049999999999999996
63, 0.40000000000000002, 0.050000000000000003, 0.049999999999999996
64, 0, 0.10000000000000001, 0.049999999999999996
65, 0.050000000000000003, 0.10000000000000001, 0.049999999999999996
66, 0.10000000000000001, 0.10000000000000001, 0.049999999999999996
67, 0.15000000000000002, 0.10000000000000001, 0.049999999999999996
68, 0.20000000000000001, 0.10000000000000001, 0.049999999999999996
69, 0.25, 0.10000000000000001, 0.049999999999999996
70, 0.30000000000000004, 0.10000000000000001, 0.049999999999999996
71, 0.35000000000000003, 0.10000000000000001, 0.049999999999999996
72, 0.40000000000000002, 0.10000000000000001, 0.049999999999999996
73, 0, 0.15000000000000002, 0.049999999999999996
74, 0.050000000000000003, 0.15000000000000002, 0.049999999999999996
75, 0.10000000000000001, 0.15000000000000002, 0.049999999999999996
76, 0.15000000000000002, 0.15000000000000002, 0.049999999999999996
77, 0.20000000000000001, 0.15000000000000002, 0.049999999999999996
78, 0.25, 0.15000000000000002, 0.049999999999999996
79, 0.30000000000000004, 0.15000000000000002, 0.049999999999999996
80, 0.35000000000000003, 0.15000000000000002, 0.049999999999999996
81, 0.40000000000000002, 0.15000000000000002, 0.049999999999999996
82, 0, 0.20000000000000001, 0.049999999999999996
83, 0.050000000000000003, 0.20000000000000001, 0.049999999999999996
84, 0.10000000000000001, 0.20000000000000001, 0.049999999999999996
85, 0.15000000000000002, 0.20000000000000001, 0.049999999999999996
86, 0.20000000000000001, 0.20000000000000001, 0.049999999999999996
87, 0.25, 0.20000000000000001, 0.049999999999999996
88, 0.30000000000000004, 0.20000000000000001, 0.049999999999999996
89, 0.35000000000000003, 0.20000000000000001, 0.049999999999999996
90, 0.40000000000000002, 0.20000000000000001, 0.049999999999999996
91, 0, 0, 0.099999999999999992
92, 0.050000000000000003, 0, 0.099999999999999992
93, 0.10000000000000001, 0, 0.099999999999999992
94, 0.15000000000000002, 0, 0.099999999999999992
95, 0.20000000000000001, 0, 0.099999999999999992
96, 0.25, 0, 0.099999999999999992
97, 0.30000000000000004, 0, 0.099999999999999992
98, 0.35000000000000003, 0, 0.099999999999999992
99, 0.40000000000000002, 0, 0.099999999999999992
100, 0, 0.050000000000000003, 0.099999999999999992
101, 0.050000000000000003, 0.050000000000000003, 0.099999999999999992
102, 0.10000000000000001, 0.050000000000000003, 0.099999999999999992
103, 0.15000000000000002, 0.050000000000000003, 0.099999999999999992
104, 0.20000000000000001, 0.050000000000000003, 0.099999999999999992
105, 0.25, 0.050000000000000003, 0.099999999999999992
106, 0.30000000000000004, 0.050000000000000003, 0.099999999999999992
107, 0.35000000000000003, 0.050000000000000003, 0.099999999999999992
108, 0.40000000000000002, 0.050000000000000003, 0.099999999999999992
109, 0, 0.10000000000000001, 0.099999999999999992
110, 0.050000000000000003, 0.10000000000000001, 0.099999999999999992
111, 0.10000000000000001, 0.10000000000000001, 0.099999999999999992
112, 0.15000000000000002, 0.10000000000000001, 0.099999999999999992
113, 0.20000000000000001, 0.10000000000000001, 0.099999999999999992
114, 0.25, 0.10000000000000001, 0.099999999999999992
115, 0.30000000000000004, 0.10000000000000001, 0.099999999999999992
116, 0.35000000000000003, 0.10000000000000001, 0.099999999999999992
117, 0.40000000000000002, 0.10000000000000001, 0.099999999999999992
118, 0, 0.15000000000000002, 0.099999999999999992
119, 0.050000000000000003, 0.15000000000000002, 0.099999999999999992
120, 0.10000000000000001, 0.15000000000000002, 0.099999999999999992
121, 0.15000000000000002, 0.15000000000000002, 0.099999999999999992
122, 0.20000000000000001, 0.15000000000000002, 0.099999999999999992
123, 0.25, 0.15000000000000002, 0.099999999999999992
124, 0.30000000000000004, 0.15000000000000002, 0.099999999999999992
125, 0.35000000000000003, 0.15000000000000002, 0.099999999999999992
126, 0.40000000000000002, 0.15000000000000002, 0.099999999999999992
127, 0, 0.20000000000000001, 0.099999999999999992
128, 0.050000000000000003, 0.20000000000000001, 0.099999999999999992
129, 0.10000000000000001, 0.20000000000000001, 0.099999999999999992
130, 0.15000000000000002, 0.20000000000000001, 0.099999999999999992
131, 0.20000000000000001, 0.20000000000000001, 0.099999999999999992
132, 0.25, 0.20000000000000001, 0.099999999999999992
133, 0.30000000000000004, 0.20000000000000001, 0.099999999999999992
134, 0.35000000000000003, 0.20000000000000001, 0.099999999999999992
135, 0.40000000000000002, 0.20000000000000001, 0.099999999999999992
136, 0, 0, 0.14999999999999999
137, 0.050000000000000003, 0, 0.14999999999999999
138, 0.10000000000000001, 0, 0.14999999999999999
139, 0.15000000000000002, 0, 0.14999999999999999
140, 0.20000000000000001, 0, 0.14999999999999999
141, 0.25, 0, 0.14999999999999999
142, 0.30000000000000004, 0, 0.14999999999999999
143, 0.35000000000000003, 0, 0.14999999999999999
144, 0.40000000000000002, 0, 0.14999999999999999
145, 0, 0.050000000000000003, 0.14999999999999999
146, 0.050000000000000003, 0.050000000000000003, 0.14999999999999999
147, 0.10000000000000001, 0.050000000000000003, 0.14999999999999999
148, 0.15000000000000002, 0.050000000000000003, 0.14999999999999999
149, 0.20000000000000001, 0.050000000000000003, 0.14999999999999999
150, 0.25, 0.050000000000000003, 0.14999999999999999
151, 0.30000000000000004, 0.050000000000000003, 0.14999999999999999
152, 0.35000000000000003, 0.050000000000000003, 0.14999999999999999
153, 0.40000000000000002, 0.050000000000000003, 0.14999999999999999
154, 0, 0.10000000000000001, 0.14999999999999999
155, 0.050000000000000003, 0.10000000000000001, 0.14999999999999999
156, 0.10000000000000001, 0.10000000000000001, 0.14999999999999999
157, 0.15000000000000002, 0.10000000000000001, 0.14999999999999999
158, 0.20000000000000001, 0.10000000000000001, 0.14999999999999999
159, 0.25, 0.10000000000000001, 0.14999999999999999
160, 0.30000000000000004, 0.10000000000000001, 0.14999999999999999
161, 0.35000000000000003, 0.10000000000000001, 0.14999999999999999
162, 0.40000000000000002, 0.10000000000000001, 0.14999999999999999
163, 0, 0.15000000000000002, 0.14999999999999999
164, 0.050000000000000003, 0.15000000000000002, 0.14999999999999999
165, 0.10000000000000001, 0.15000000000000002, 0.14999999999999999
166, 0.15000000000000002, 0.15000000000000002, 0.14999999999999999
167, 0.20000000000000001, 0.15000000000000002, 0.14999999999999999
168, 0.25, 0.15000000000000002, 0.14999999999999999
169, 0.30000000000000004, 0.15000000000000002, 0.14999999999999999
170, 0.35000000000000003, 0.15000000000000002, 0.14999999999999999
171, 0.40000000000000002, 0.15000000000000002, 0.14999999999999999
172, 0, 0.20000000000000001, 0.14999999999999999
173, 0.050000000000000003, 0.20000000000000001, 0.14999999999999999
174, 0.10000000000000001, 0.20000000000000001, 0.14999999999999999
175, 0.15000000000000002, 0.20000000000000001, 0.14999999999999999
176, 0.20000000000000001, 0.20000000000000001, 0.14999999999999999
177, 0.25, 0.20000000000000001, 0.14999999999999999
178, 0.30000000000000004, 0.20000000000000001, 0.14999999999999999
179, 0.35000000000000003, 0.20000000000000001, 0.14999999999999999
180, 0.40000000000000002, 0.20000000000000001, 0.14999999999999999
181, 0, 0, 0.19999999999999998
182, 0.050000000000000003, 0, 0.19999999999999998
183, 0.10000000000000001, 0, 0.19999999999999998
184, 0.15000000000000002, 0, 0.19999999999999998
185, 0.20000000000000001, 0, 0.19999999999999998
186, 0.25, 0, 0.19999999999999998
187, 0.30000000000000004, 0, 0.19999999999999998
188, 0.35000000000000003, 0, 0.19999999999999998
189, 0.40000000000000002, 0, 0.19999999999999998
190, 0, 0.050000000000000003, 0.19999999999999998
191, 0.050000000000000003, 0.050000000000000003, 0.19999999999999998
192, 0.10000000000000001, 0.050000000000000003, 0.19999999999999998
193, 0.15000000000000002, 0.050000000000000003, 0.19999999999999998
194, 0.20000000000000001, 0.050000000000000003, 0.19999999999999998
195, 0.25, 0.050000000000000003, 0.19999999999999998
196, 0.30000000000000004, 0.050000000000000003, 0.19999999999999998
197, 0.35000000000000003, 0.050000000000000003, 0.19999999999999998
198, 0.40000000000000002, 0.050000000000000003, 0.19999999999999998
199, 0, 0.10000000000000001, 0.19999999999999998
200, 0.050000000000000003, 0.10000000000000001, 0.19999999999999998
201, 0.10000000000000001, 0.10000000000000001, 0.19999999999999998
202, 0.15000000000000002, 0.10000000000000001, 0.19999999999999998
203, 0.20000000000000001, 0.10000000000000001, 0.19999999999999998
204, 0.25, 0.10000000000000001, 0.19999999999999998
205, 0.30000000000000004, 0.10000000000000001, 0.19999999999999998
206, 0.35000000000000003, 0.10000000000000001, 0.19999999999999998
207, 0.40000000000000002, 0.10000000000000001, 0.19999999999999998
208, 0, 0.15000000000000002, 0.19999999999999998
209, 0.050000000000000003, 0.15000000000000002, 0.19999999999999998
210, 0.10000000000000001, 0.15000000000000002, 0.19999999999999998
211, 0.15000000000000002, 0.15000000000000002, 0.19999999999999998
212, 0.20000000000000001, 0.15000000000000002, 0.19999999999999998
213, 0.25, 0.15000000000000002, 0.19999999999999998
214, 0.30000000000000004, 0.15000000000000002, 0.19999999999999998
215, 0.35000000000000003, 0.15000000000000002, 0.19999999999999998
216, 0.40000000000000002, 0.15000000000000002, 0.19999999999999998
217, 0, 0.20000000000000001, 0.19999999999999998
218, 0.050000000000000003, 0.20000000000000001, 0.19999999999999998
219, 0.10000000000000001, 0.20000000000000001, 0.19999999999999998
220, 0.15000000000000002, 0.20000000000000001, 0.19999999999999998
221, 0.20000000000000001, 0.20000000000000001, 0.19999999999999998
222, 0.25, 0.20000000000000001, 0.19999999999999998
223, 0.30000000000000004, 0.20000000000000001, 0.19999999999999998
224, 0.35000000000000003, 0.20000000000000001, 0.19999999999999998
225, 0.40000000000000002, 0.20000000000000001, 0.19999999999999998
226, 0, 0, 0.24999999999999997
227, 0.050000000000000003, 0, 0.24999999999999997
228, 0.10000000000000001, 0, 0.24999999999999997
229, 0.15000000000000002, 0, 0.24999999999999997
230, 0.20000000000000001, 0, 0.24999999999999997
231, 0.25, 0, 0.24999999999999997
232, 0.30000000000000004, 0, 0.24999999999999997
233, 0.35000000000000003, 0, 0.24999999999999997
234, 0.40000000000000002, 0, 0.24999999999999997
235, 0, 0.050000000000000003, 0.24999999999999997
236, 0.050000000000000003, 0.050000000000000003, 0.24999999999999997
237, 0.10000000000000001, 0.050000000000000003, 0.24999999999999997
238, 0.15000000000000002, 0.050000000000000003, 0.24999999999999997
239, 0.20000000000000001, 0.050000000000000003, 0.24999999999999997
240, 0.25, 0.050000000000000003, 0.24999999999999997
241, 0.30000000000000004, 0.050000000000000003, 0.24999999999999997
242, 0.35000000000000003, 0.050000000000000003, 0.24999999999999997
243, 0.40000000000000002, 0.050000000000000003, 0.24999999999999997
244, 0, 0.10000000000000001, 0.24999999999999997
245, 0.050000000000000003, 0.10000000000000001, 0.24999999999999997
246, 0.10000000000000001, 0.10000000000000001, 0.24999999999999997
247, 0.15000000000000002, 0.10000000000000001, 0.24999999999999997
248, 0.20000000000000001, 0.10000000000000001, 0.24999999999999997
249, 0.25, 0.10000000000000001, 0.24999999999999997
250, 0.30000000000000004, 0.10000000000000001, 0.24999999999999997
251, 0.35000000000000003, 0.10000000000000001, 0.24999999999999997
252, 0.40000000000000002, 0.10000000000000001, 0.24999999999999997
253, 0, 0.15000000000000002, 0.24999999999999997
254, 0.050000000000000003, 0.15000000000000002, 0.24999999999999997
255, 0.10000000000000001, 0.15000000000000002, 0.24999999999999997
256, 0.15000000000000002, 0.15000000000000002, 0.24999999999999997
257, 0.20000000000000001, 0.15000000000000002, 0.24999999999999997
258, 0.25, 0.15000000000000002, 0.24999999999999997
259, 0.30000000000000004, 0.15000000000000002, 0.24999999999999997
260, 0.35000000000000003, 0.15000000000000002, 0.24999999999999997
261, 0.40000000000000002, 0.15000000000000002, 0.24999999999999997
262, 0, 0.20000000000000001, 0.24999999999999997
263, 0.050000000000000003, 0.20000000000000001, 0.24999999999999997
264, 0.10000000000000001, 0.20000000000000001, 0.24999999999999997
265, 0.15000000000000002, 0.20000000000000001, 0.24999999999999997
266, 0.20000000000000001, 0.20000000000000001, 0.24999999999999997
267, 0.25, 0.20000000000000001, 0.24999999999999997
268, 0.30000000000000004, 0.20000000000000001, 0.24999999999999997
269, 0.35000000000000003, 0.20000000000000001, 0.24999999999999997
270, 0.40000000000000002, 0.20000000000000001, 0.24999999999999997
271, 0, 0, 0.29999999999999999
272, 0.050000000000000003, 0, 0.29999999999999999
273, 0.10000000000000001, 0, 0.29999999999999999
274, 0.15000000000000002, 0, 0.29999999999999999
275, 0.20000000000000001, 0, 0.29999999999999999
276, 0.25, 0, 0.29999999999999999
277, 0.30000000000000004, 0, 0.29999999999999999
278, 0.35000000000000003, 0, 0.29999999999999999
279, 0.40000000000000002, 0, 0.29999999999999999
280, 0, 0.050000000000000003, 0.29999999999999999
281, 0.050000000000000003, 0.050000000000000003, 0.29999999999999999
282, 0.10000000000000001, 0.050000000000000003, 0.29999999999999999
283, 0.15000000000000002, 0.050000000000000003, 0.29999999999999999
284, 0.20000000000000001, 0.050000000000000003, 0.29999999999999999
285, 0.25, 0.050000000000000003, 0.29999999999999999
286, 0.30000000000000004, 0.050000000000000003, 0.29999999999999999
287, 0.35000000000000003, 0.050000000000000003, 0.29999999999999999
288, 0.40000000000000002, 0.050000000000000003, 0.29999999999999999
289, 0, 0.10000000000000001, 0.29999999999999999
290, 0.050000000000000003, 0.10000000000000001, 0.29999999999999999
291, 0.10000000000000001, 0.10000000000000001, 0.29999999999999999
292, 0.15000000000000002, 0.10000000000000001, 0.29999999999999999
293, 0.20000000000000001, 0.10000000000000001, 0.29999999999999999
294, 0.25, 0.10000000000000001, 0.29999999999999999
295, 0.30000000000000004, 0.10000000000000001, 0.29999999999999999
296, 0.35000000000000003, 0.10000000000000001, 0.29999999999999999
297, 0.40000000000000002, 0.10000000000000001, 0.29999999999999999
298, 0, 0.15000000000000002, 0.29999999999999999
299, 0.050000000000000003, 0.15000000000000002, 0.29999999999999999
300, 0.10000000000000001, 0.15000000000000002, 0.29999999999999999
301, 0.15000000000000002, 0.15000000000000002, 0.29999999999999999
302, 0.20000000000000001, 0.15000000000000002, 0.29999999999999999
303, 0.25, 0.15000000000000002, 0.29999999999999999
304, 0.30000000000000004, 0.15000000000000002, 0.29999999999999999
305, 0.35000000000000003, 0.15000000000000002, 0.29999999999999999
306, 0.40000000000000002, 0.15000000000000002, 0.29999999999999999
307, 0, 0.20000000000000001, 0.29999999999999999
308, 0.050000000000000003, 0.20000000000000001, 0.29999999999999999
309, 0.10000000000000001, 0.20000000000000001, 0.29999999999999999
310, 0.15000000000000002, 0.20000000000000001, 0.29999999999999999
311, 0.20000000000000001, 0.20000000000000001, 0.29999999999999999
312, 0.25, 0.20000000000000001, 0.29999999999999999
313, 0.30000000000000004, 0.20000000000000001, 0.29999999999999999
314, 0.35000000000000003, 0.20000000000000001, 0.29999999999999999
315, 0.40000000000000002, 0.20000000000000001, 0.29999999999999999
316, 0, 0.20002, 0
317, 0.040000000000000001, 0.20002, 0
318, 0.080000000000000002, 0.20002, 0
319, 0.12, 0.20002, 0
320, 0.16, 0.20002, 0
321, 0.20000000000000001, 0.20002, 0
322, 0.23999999999999999, 0.20002, 0
323, 0.28000000000000003, 0.20002, 0
324, 0.32000000000000001, 0.20002, 0
325, 0.35999999999999999, 0.20002, 0
326, 0.40000000000000002, 0.20002, 0
327, 0, 0.25002000000000002, 0
328, 0.040000000000000001, 0.25002000000000002, 0
329, 0.080000000000000002, 0.25002000000000002, 0
330, 0.12, 0.25002000000000002, 0
331, 0.16, 0.25002000000000002, 0
332, 0.20000000000000001, 0.25002000000000002, 0
333, 0.23999999999999999, 0.25002000000000002, 0
334, 0.28000000000000003, 0.25002000000000002, 0
335, 0.32000000000000001, 0.25002000000000002, 0
336, 0.35999999999999999, 0.25002000000000002, 0
337, 0.40000000000000002, 0.25002000000000002, 0
338, 0, 0.30002000000000001, 0
339, 0.040000000000000001, 0.30002000000000001, 0
340, 0.080000000000000002, 0.30002000000000001, 0
341, 0.12, 0.30002000000000001, 0
342, 0.16, 0.30002000000000001, 0
343, 0.20000000000000001, 0.30002000000000001, 0
344, 0.23999999999999999, 0.30002000000000001, 0
345, 0.28000000000000003, 0.30002000000000001, 0
346, 0.32000000000000001, 0.30002000000000001, 0
347, 0.35999999999999999, 0.30002000000000001, 0
348, 0.40000000000000002, 0.30002000000000001, 0
349, 0, 0.35002, 0
350, 0.040000000000000001, 0.35002, 0
351, 0.080000000000000002, 0.35002, 0
352, 0.12, 0.35002, 0
353, 0.16, 0.35002, 0
354, 0.20000000000000001, 0.35002, 0
355, 0.23999999999999999, 0.35002, 0
356, 0.28000000000000003, 0.35002, 0
357, 0.32000000000000001, 0.35002, 0
358, 0.35999999999999999, 0.35002, 0
359, 0.40000000000000002, 0.35002, 0
360, 0, 0.20002, 0.059999999999999998
361, 0.040000000000000001, 0.20002, 0.059999999999999998
362, 0.080000000000000002, 0.20002, 0.059999999999999998
363, 0.12, 0.20002, 0.059999999999999998
364, 0.16, 0.20002, 0.059999999999999998
365, 0.20000000000000001, 0.20002, 0.059999999999999998
366, 0.23999999999999999, 0.20002, 0.059999999999999998
367, 0.28000000000000003, 0.20002, 0.059999999999999998
368, 0.32000000000000001, 0.20002, 0.059999999999999998
369, 0.35999999999999999, 0.20002, 0.059999999999999998
370, 0.40000000000000002, 0.20002, 0.059999999999999998
371, 0, 0.25002000000000002, 0.059999999999999998
372, 0.040000000000000001, 0.25002000000000002, 0.059999999999999998
373, 0.080000000000000002, 0.25002000000000002, 0.059999999999999998
374, 0.12, 0.25002000000000002, 0.059999999999999998
375, 0.16, 0.25002000000000002, 0.059999999999999998
376, 0.20000000000000001, 0.25002000000000002, 0.059999999999999998
377, 0.23999999999999999, 0.25002000000000002, 0.059999999999999998
378, 0.28000000000000003, 0.25002000000000002, 0.059999999999999998
379, 0.32000000000000001, 0.25002000000000002, 0.059999999999999998
380, 0.35999999999999999, 0.25002000000000002, 0.059999999999999998
381, 0.40000000000000002, 0.25002000000000002, 0.059999999999999998
382, 0, 0.30002000000000001, 0.059999999999999998
383, 0.040000000000000001, 0.30002000000000001, 0.059999999999999998
384, 0.080000000000000002, 0.30002000000000001, 0.059999999999999998
385, 0.12, 0.30002000000000001, 0.059999999999999998
386, 0.16, 0.30002000000000001, 0.059999999999999998
387, 0.20000000000000001, 0.30002000000000001, 0.059999999999999998
388, 0.23999999999999999, 0.30002000000000001, 0.059999999999999998
389, 0.28000000000000003, 0.30002000000000001, 0.059999999999999998
390, 0.32000000000000001, 0.30002000000000001, 0.059999999999999998
391, 0.35999999999999999, 0.30002000000000001, 0.059999999999999998
392, 0.40000000000000002, 0.30002000000000001, 0.059999999999999998
393, 0, 0.35002, 0.059999999999999998
394, 0.040000000000000001, 0.35002, 0.059999999999999998
395, 0.080000000000000002, 0.35002, 0.059999999999999998
396, 0.12, 0.35002, 0.059999999999999998
397, 0.16, 0.35002, 0.059999999999999998
398, 0.20000000000000001, 0.35002, 0.059999999999999998
399, 0.23999999999999999, 0.35002, 0.059999999999999998
400, 0.28000000000000003, 0.35002, 0.059999999999999998
401, 0.32000000000000001, 0.35002, 0.059999999999999998
402, 0.35999999999999999, 0.35002, 0.059999999999999998
403, 0.40000000000000002, 0.35002, 0.059999999999999998
404, 0, 0.20002, 0.12
405, 0.040000000000000001, 0.20002, 0.12
406, 0.080000000000000002, 0.20002, 0.12
407, 0.12, 0.20002, 0.12
408, 0.16, 0.20002, 0.12
409, 0.20000000000000001, 0.20002, 0.12
410, 0.23999999999999999, 0.20002, 0.12
411, 0.28000000000000003, 0.20002, 0.12
412, 0.32000000000000001, 0.20002, 0.12
413, 0.35999999999999999, 0.20002, 0.12
414, 0.40000000000000002, 0.20002, 0.12
415, 0, 0.25002000000000002, 0.12
416, 0.040000000000000001, 0.25002000000000002, 0.12
417, 0.080000000000000002, 0.25002000000000002, 0.12
418, 0.12, 0.25002000000000002, 0.12
419, 0.16, 0.25002000000000002, 0.12
420, 0.20000000000000001, 0.25002000000000002, 0.12
421, 0.23999999999999999, 0.25002000000000002, 0.12
422, 0.28000000000000003, 0.25002000000000002, 0.12
423, 0.32000000000000001, 0.25002000000000002, 0.12
424, 0.35999999999999999, 0.25002000000000002, 0.12
425, 0.40000000000000002, 0.25002000000000002, 0.12
426, 0, 0.30002000000000001, 0.12
427, 0.040000000000000001, 0.30002000000000001, 0.12
428, 0.080000000000000002, 0.30002000000000001, 0.12
429, 0.12, 0.30002000000000001, 0.12
430, 0.16, 0.30002000000000001, 0.12
431, 0.20000000000000001, 0.30002000000000001, 0.12
432, 0.23999999999999999, 0.30002000000000001, 0.12
433, 0.28000000000000003, 0.30002000000000001, 0.12
434, 0.32000000000000001, 0.30002000000000001, 0.12
435, 0.35999999999999999, 0.30002000000000001, 0.12
436, 0.40000000000000002, 0.30002000000000001, 0.12
437, 0, 0.35002, 0.12
438, 0.040000000000000001, 0.35002, 0.12
439, 0.080000000000000002, 0.35002, 0.12
440, 0.12, 0.35002, 0.12
441, 0.16, 0.35002, 0.12
442, 0.20000000000000001, 0.35002, 0.12
443, 0.23999999999999999, 0.35002, 0.12
444, 0.28000000000000003, 0.35002, 0.12
445, 0.32000000000000001, 0.35002, 0.12
446, 0.35999999999999999, 0.35002, 0.12
447, 0.40000000000000002, 0.35002, 0.12
448, 0, 0.20002, 0.17999999999999999
449, 0.040000000000000001, 0.20002, 0.17999999999999999
450, 0.080000000000000002, 0.20002, 0.17999999999999999
451, 0.12, 0.20002, 0.17999999999999999
452, 0.16, 0.20002, 0.17999999999999999
453, 0.20000000000000001, 0.20002, 0.17999999999999999
454, 0.23999999999999999, 0.20002, 0.17999999999999999
455, 0.28000000000000003, 0.20002, 0.17999999999999999
456, 0.32000000000000001, 0.20002, 0.17999999999999999
457, 0.35999999999999999, 0.20002, 0.17999999999999999
458, 0.40000000000000002, 0.20002, 0.17999999999999999
459, 0, 0.25002000000000002, 0.17999999999999999
460, 0.040000000000000001, 0.25002000000000002, 0.17999999999999999
461, 0.080000000000000002, 0.25002000000000002, 0.17999999999999999
462, 0.12, 0.25002000000000002, 0.17999999999999999
463, 0.16, 0.25002000000000002, 0.17999999999999999
464, 0.20000000000000001, 0.25002000000000002, 0.17999999999999999
465, 0.23999999999999999, 0.25002000000000002, 0.17999999999999999
466, 0.28000000000000003, 0.25002000000000002, 0.17999999999999999
467, 0.32000000000000001, 0.25002000000000002, 0.17999999999999999
468, 0.35999999999999999, 0.25002000000000002, 0.17999999999999999
469, 0.40000000000000002, 0.25002000000000002, 0.17999999999999999
470, 0, 0.30002000000000001, 0.17999999999999999
471, 0.040000000000000001, 0.30002000000000001, 0.17999999999999999
472, 0.080000000000000002, 0.30002000000000001, 0.17999999999999999
473, 0.12, 0.30002000000000001, 0.17999999999999999
474, 0.16, 0.30002000000000001, 0.17999999999999999
475, 0.20000000000000001, 0.30002000000000001, 0.17999999999999999
476, 0.23999999999999999, 0.30002000000000001, 0.17999999999999999
477, 0.28000000000000003, 0.30002000000000001, 0.17999999999999999
478, 0.32000000000000001, 0.30002000000000001, 0.17999999999999999
479, 0.35999999999999999, 0.30002000000000001, 0.17999999999999999
480, 0.40000000000000002, 0.30002000000000001, 0.17999999999999999
481, 0, 0.35002, 0.17999999999999999
482, 0.040000000000000001, 0.35002, 0.17999999999999999
483, 0.080000000000000002, 0.35002, 0.17999999999999999
484, 0.12, 0.35002, 0.17999999999999999
485, 0.16, 0.35002, 0.17999999999999999
486, 0.20000000000000001, 0.35002, 0.17999999999999999
487, 0.23999999999999999, 0.35002, 0.17999999999999999
488, 0.28000000000000003, 0.35002, 0.17999999999999999
489, 0.32000000000000001, 0.35002, 0.17999999999999999
490, 0.35999999999999999, 0.35002, 0.17999999999999999
491, 0.40000000000000002, 0.35002, 0.17999999999999999
492, 0, 0.20002, 0.23999999999999999
493, 0.040000000000000001, 0.20002, 0.23999999999999999
494, 0.080000000000000002, 0.20002, 0.23999999999999999
495, 0.12, 0.20002, 0.23999999999999999
496, 0.16, 0.20002, 0.23999999999999999
497, 0.20000000000000001, 0.20002, 0.23999999999999999
498, 0.23999999999999999, 0.20002, 0.23999999999999999
499, 0.28000000000000003, 0.20002, 0.23999999999999999
500, 0.32000000000000001, 0.20002, 0.23999999999999999
501, 0.35999999999999999, 0.20002, 0.23999999999999999
502, 0.40000000000000002, 0.20002, 0.23999999999999999
503, 0, 0.25002000000000002, 0.23999999999999999
504, 0.040000000000000001, 0.25002000000000002, 0.23999999999999999
505, 0.080000000000000002, 0.25002000000000002, 0.23999999999999999
506, 0.12, 0.25002000000000002, 0.23999999999999999
507, 0.16, 0.25002000000000002, 0.23999999999999999
508, 0.20000000000000001, 0.25002000000000002, 0.23999999999999999
509, 0.23999999999999999, 0.25002000000000002, 0.23999999999999999
510, 0.28000000000000003, 0.25002000000000002, 0.23999999999999999
511, 0.32000000000000001, 0.25002000000000002, 0.23999999999999999
512, 0.35999999999999999, 0.25002000000000002, 0.23999999999999999
513, 0.40000000000000002, 0.25002000000000002, 0.23999999999999999
514, 0, 0.30002000000000001, 0.23999999999999999
515, 0.040000000000000001, 0.30002000000000001, 0.23999999999999999
516, 0.080000000000000002, 0.30002000000000001, 0.23999999999999999
517, 0.12, 0.30002000000000001, 0.23999999999999999
518, 0.16, 0.30002000000000001, 0.23999999999999999
519, 0.20000000000000001, 0.30002000000000001, 0.23999999999999999
520, 0.23999999999999999, 0.30002000000000001, 0.23999999999999999
521, 0.28000000000000003, 0.30002000000000001, 0.23999999999999999
522, 0.32000000000000001, 0.30002000000000001, 0.23999999999999999
523, 0.35999999999999999, 0.30002000000000001, 0.23999999999999999
524, 0.40000000000000002, 0.30002000000000001, 0.23999999999999999
525, 0, 0.35002, 0.23999999999999999
526, 0.040000000000000001, 0.35002, 0.23999999999999999
527, 0.080000000000000002, 0.35002, 0.23999999999999999
528, 0.12, 0.35002, 0.23999999999999999
529, 0.16, 0.35002, 0.23999999999999999
530, 0.20000000000000001, 0.35002, 0.23999999999999999
531, 0.23999999999999999, 0.35002, 0.23999999999999999
532, 0.28000000000000003, 0.35002, 0.23999999999999999
533, 0.32000000000000001, 0.35002, 0.23999999999999999
534, 0.35999999999999999, 0.35002, 0.23999999999999999
535, 0.40000000000000002, 0.35002, 0.23999999999999999
536, 0, 0.20002, 0.29999999999999999
537, 0.040000000000000001, 0.20002, 0.29999999999999999
538, 0.080000000000000002, 0.20002, 0.29999999999999999
539, 0.12, 0.20002, 0.29999999999999999
540, 0.16, 0.20002, 0.29999999999999999
541, 0.20000000000000001, 0.20002, 0.29999999999999999
542, 0.23999999999999999, 0.20002, 0.29999999999999999
543, 0.28000000000000003, 0.20002, 0.29999999999999999
544, 0.32000000000000001, 0.20002, 0.29999999999999999
545, 0.35999999999999999, 0.20002, 0.29999999999999999
546, 0.40000000000000002, 0.20002, 0.29999999999999999
547, 0, 0.25002000000000002, 0.29999999999999999
548, 0.040000000000000001, 0.25002000000000002, 0.29999999999999999
549, 0.080000000000000002, 0.25002000000000002, 0.29999999999999999
550, 0.12, 0.25002000000000002, 0.29999999999999999
551, 0.16, 0.25002000000000002, 0.29999999999999999
552, 0.20000000000000001, 0.25002000000000002, 0.29999999999999999
553, 0.23999999999999999, 0.25002000000000002, 0.29999999999999999
554, 0.28000000000000003, 0.25002000000000002, 0.29999999999999999
555, 0.32000000000000001, 0.25002000000000002, 0.29999999999999999
556, 0.35999999999999999, 0.25002000000000002, 0.29999999999999999
557, 0.40000000000000002, 0.25002000000000002, 0.29999999999999999
558, 0, 0.30002000000000001, 0.29999999999999999
559, 0.040000000000000001, 0.30002000000000001, 0.29999999999999999
560, 0.080000000000000002, 0.30002000000000001, 0.29999999999999999
561, 0.12, 0.30002000000000001, 0.29999999999999999
562, 0.16, 0.30002000000000001, 0.29999999999999999
563, 0.20000000000000001, 0.30002000000000001, 0.29999999999999999
564, 0.23999999999999999, 0.30002000000000001, 0.29999999999999999
565, 0.28000000000000003, 0.30002000000000001, 0.29999999999999999
566, 0.32000000000000001, 0.30002000000000001, 0.29999999999999999
567, 0.35999999999999999, 0.30002000000000001, 0.29999999999999999
568, 0.40000000000000002, 0.30002000000000001, 0.29999999999999999
569, 0, 0.35002, 0.29999999999999999
570, 0.040000000000000001, 0.35002, 0.29999999999999999
571, 0.080000000000000002, 0.35002, 0.29999999999999999
572, 0.12, 0.35002, 0.29999999999999999
573, 0.16, 0.35002, 0.29999999999999999
574, 0.20000000000000001, 0.35002, 0.29999999999999999
575, 0.23999999999999999, 0.35002, 0.29999999999999999
576, 0.28000000000000003, 0.35002, 0.29999999999999999
577, 0.32000000000000001, 0.35002, 0.29999999999999999
578, 0.35999999999999999, 0.35002, 0.29999999999999999
579, 0.40000000000000002, 0.35002, 0.29999999999999999
*ELEMENT, TYPE=C3D8, ELSET=LOWER
1, 1, 2, 11, 10, 46, 47, 56, 55
2, 2, 3, 12, 11, 47, 48, 57, 56
3, 3, 4, 13, 12, 48, 49, 58, 57
4, 4, 5, 14, 13, 49, 50, 59, 58
5, 5, 6, 15, 14, 50, 51, 60, 59
6, 6, 7, 16, 15, 51, 52, 61, 60
7, 7, 8, 17, 16, 52, 53, 62, 61
8, 8, 9, 18, 17, 53, 54, 63, 62
9, 10, 11, 20, 19, 55, 56, 65, 64
10, 11, 12, 21, 20, 56, 57, 66, 65
11, 12, 13, 22, 21, 57, 58, 67, 66
12, 13, 14, 23, 22, 58, 59, 68, 67
13, 14, 15, 24, 23, 59, 60, 69, 68
14, 15, 16, 25, 24, 60, 61, 70, 69
15, 16, 17, 26, 25, 61, 62, 71, 70
16, 17, 18, 27, 26, 62, 63, 72, 71
17, 19, 20, 29, 28, 64, 65, 74, 73
18, 20, 21, 30, 29, 65, 66, 75, 74
19, 21, 22, 31, 30, 66, 67, 76, 75
20, 22, 23, 32, 31, 67, 68, 77, 76
21, 23, 24, 33, 32, 68, 69, 78, 77
22, 24, 25, 34, 33, 69, 70, 79, 78
23, 25, 26, 35, 34, 70, 71, 80, 79
24, 26, 27, 36, 35, 71, 72, 81, 80
25, 28, 29, 38, 37, 73, 74, 83, 82
26, 29, 30, 39, 38, 74, 75, 84, 83
27, 30, 31, 40, 39, 75, 76, 85, 84
28, 31, 32, 41, 40, 76, 77, 86, 85
29, 32, 33, 42, 41, 77, 78, 87, 86
30, 33, 34, 43, 42, 78, 79, 88, 87
31, 34, 35, 44, 43, 79, 80, 89, 88
32, 35, 36, 45, 44, 80, 81, 90, 89
33, 46, 47, 56, 55, 91, 92, 101, 100
34, 47, 48, 57, 56, 92, 93, 102, 101
35, 48, 49, 58, 57, 93, 94, 103, 102
36, 49, 50, 59, 58, 94, 95, 104, 103
37, 50, 51, 60, 59, 95, 96, 105, 104
38, 51, 52, 61, 60, 96, 97, 106, 105
39, 52, 53, 62, 61, 97, 98, 107, 106
40, 53, 54, 63, 62, 98, 99, 108, 107
41, 55, 56, 65, 64, 100, 101, 110, 109
42, 56, 57, 66, 65, 101, 102, 111, 110
43, 57, 58, 67, 66, 102, 103, 112, 111
44, 58, 59, 68, 67, 103, 104, 113, 112
45, 59, 60, 69, 68, 104, 105, 114, 113
46, 60, 61, 70, 69, 105, 106, 115, 114
47, 61, 62, 71, 70, 106, 107, 116, 115
48, 62, 63, 72, 71, 107, 108, 117, 116
49, 64, 65, 74, 73, 109, 110, 119, 118
50, 65, 66, 75, 74, 110, 111, 120, 119
51, 66, 67, 76, 75, 111, 112, 121, 120
52, 67, 68, 77, 76, 112, 113, 122, 121
53, 68, 69, 78, 77, 113, 114, 123, 122
54, 69, 70, 79, 78, 114, 115, 124, 123
55, 70, 71, 80, 79, 115, 116, 125, 124
56, 71, 72, 81, 80, 116, 117, 126, 125
57, 73, 74, 83, 82, 118, 119, 128, 127
58, 74, 75, 84, 83, 119, 120, 129, 128
59, 75, 76, 85, 84, 120, 121, 130, 129
60, 76, 77, 86, 85, 121, 122, 131, 130
61, 77, 78, 87, 86, 122, 123, 132, 131
62, 78, 79, 88, 87, 123, 124, 133, 132
63, 79, 80, 89, 88, 124, 125, 134, 133
64, 80, 81, 90, 89, 125, 126, 135, 134
65, 91, 92, 101, 100, 136, 137, 146, 145
66, 92, 93, 102, 101, 137, 138, 147, 146
67, 93, 94, 103, 102, 138, 139, 148, 147
68, 94, 95, 104, 103, 139, 140, 149, 148
69, 95, 96, 105, 104, 140, 141, 150, 149
70, 96, 97, 106, 105, 141, 142, 151, 150
71, 97, 98, 107, 106, 142, 143, 152, 151
72, 98, 99, 108, 107, 143, 144, 153, 152
73, 100, 101, 110, 109, 145, 146, 155, 154
74, 101, 102, 111, 110, 146, 147, 156, 155
75, 102, 103, 112, 111, 147, 148, 157, 156
76, 103, 104, 113, 112, 148, 149, 158, 157
77, 104, 105, 114, 113, 149, 150, 159, 158
78, 105, 106, 115, 114, 150, 151, 160, 159
79, 106, 107, 116, 115, 151, 152, 161, 160
80, 107, 108, 117, 116, 152, 153, 162, 161
81, 109, 110, 119, 118, 154, 155, 164, 163
82, 110, 111, 120, 119, 155, 156, 165, 164
83, 111, 112, 121, 120, 156, 157, 166, 165
84, 112, 113, 122, 121, 157, 158, 167, 166
85, 113, 114, 123, 122, 158, 159, 168, 167
86, 114, 115, 124, 123, 159, 160, 169, 168
87, 115, 116, 125, 124, 160, 161, 170, 169
88, 116, 117, 126, 125, 161, 162, 171, 170
89, 118, 119, 128, 127, 163, 164, 173, 172
90, 119, 120, 129, 128, 164, 165, 174, 173
91, 120, 121, 130, 129, 165, 166, 175, 174
92, 121, 122, 131, 130, 166, 167, 176, 175
93, 122, 123, 132, 131, 167, 168, 177, 176
94, 123, 124, 133, 132, 168, 169, 178, 177
95, 124, 125, 134, 133, 169, 170, 179, 178
96, 125, 126, 135, 134, 170, 171, 180, 179
97, 136, 137, 146, 145, 181, 182, 191, 190
98, 137, 138, 147, 146, 182, 183, 192, 191
99, 138, 139, 148, 147, 183, 184, 193, 192
100, 139, 140, 149, 148, 184, 185, 194, 193
101, 140, 141, 150, 149, 185, 186, 195, 194
102, 141, 142, 151, 150, 186, 187, 196, 195
103, 142, 143, 152, 151, 187, 188, 197, 196
104, 143, 144, 153, 152, 188, 189, 198, 197
105, 145, 146, 155, 154, 190, 191, 200, 199
106, 146, 147, 156, 155, 191, 192, 201, 200
107, 147, 148, 157, 156, 192, 193, 202, 201
108, 148, 149, 158, 157, 193, 194, 203, 202
109, 149, 150, 159, 158, 194, 195, 204, 203
110, 150, 151, 160, 159, 195, 196, 205, 204
111, 151, 152, 161, 160, 196, 197, 206, 205
112, 152, 153, 162, 161, 197, 198, 207, 206
113, 154, 155, 164, 163, 199, 200, 209, 208
114, 155, 156, 165, 164, 200, 201, 210, 209
115, 156, 157, 166, 165, 201, 202, 211, 210
116, 157, 158, 167, 166, 202, 203, 212, 211
117, 158, 159, 168, 167, 203, 204, 213, 212
118, 159, 160, 169, 168, 204, 205, 214, 213
119, 160, 161, 170, 169, 205, 206, 215, 214
120, 161, 162, 171, 170, 206, 207, 216, 215
121, 163, 164, 173, 172, 208, 209, 218, 217
122, 164, 165, 174, 173, 209, 210, 219, 218
123, 165, 166, 175, 174, 210, 211, 220, 219
124, 166, 167, 176, 175, 211, 212, 221, 220
125, 167, 168, 177, 176, 212, 213, 222, 221
126, 168, 169, 178, 177, 213, 214, 223, 222
127, 169, 170, 179, 178, 214, 215, 224, 223
128, 170, 171, 180, 179, 215, 216, 225, 224
129, 181, 182, 191, 190, 226, 227, 236, 235
130, 182, 183, 192, 191, 227, 228, 237, 236
131, 183, 184, 193, 192, 228, 229, 238, 237
132, 184, 185, 194, 193, 229, 230, 239, 238
133, 185, 186, 195, 194, 230, 231, 240, 239
134, 186, 187, 196, 195, 231, 232, 241, 240
135, 187, 188, 197, 196, 232, 233, 242, 241
136, 188, 189, 198, 197, 233, 234, 243, 242
137, 190, 191, 200, 199, 235, 236, 245, 244
138, 191, 192, 201, 200, 236, 237, 246, 245
139, 192, 193, 202, 201, 237, 238, 247, 246
140, 193, 194, 203, 202, 238, 239, 248, 247
141, 194, 195, 204, 203, 239, 240, 249, 248
142, 195, 196, 205, 204, 240, 241, 250, 249
143, 196, 197, 206, 205, 241, 242, 251, 250
144, 197, 198, 207, 206, 242, 243, 252, 251
145, 199, 200, 209, 208, 244, 245, 254, 253
146, 200, 201, 210, 209, 245, 246, 255, 254
147, 201, 202, 211, 210, 246, 247, 256, 255
148, 202, 203, 212, 211, 247, 248, 257, 256
149, 203, 204, 213, 212, 248, 249, 258, 257
150, 204, 205, 214, 213, 249, 250, 259, 258
151, 205, 206, 215, 214, 250, 251, 260, 259
152, 206, 207, 216, 215, 251, 252, 261, 260
153, 208, 209, 218, 217, 253, 254, 263, 262
154, 209, 210, 219, 218, 254, 255, 264, 263
155, 210, 211, 220, 219, 255, 256, 265, 264
156, 211, 212, 221, 220, 256, 257, 266, 265
157, 212, 213, 222, 221, 257, 258, 267, 266
158, 213, 214, 223, 222, 258, 259, 268, 267
159, 214, 215, 224, 223, 259, 260, 269, 268
160, 215, 216, 225, 224, 260, 261, 270, 269
161, 226, 227, 236, 235, 271, 272, 281, 280
162, 227, 228, 237, 236, 272, 273, 282, 281
163, 228, 229, 238, 237, 273, 274, 283, 282
164, 229, 230, 239, 238, 274, 275, 284, 283
165, 230, 231, 240, 239, 275, 276, 285, 284
166, 231, 232, 241, 240, 276, 277, 286, 285
167, 232, 233, 242, 241, 277, 278, 287, 286
168, 233, 234, 243, 242, 278, 279, 288, 287
169, 235, 236, 245, 244, 280, 281, 290, 289
170, 236, 237, 246, 245, 281, 282, 291, 290
171, 237, 238, 247, 246, 282, 283, 292, 291
172, 238, 239, 248, 247, 283, 284, 293, 292
173, 239, 240, 249, 248, 284, 285, 294, 293
174, 240, 241, 250, 249, 285, 286, 295, 294
175, 241, 242, 251, 250, 286, 287, 296, 295
176, 242, 243, 252, 251, 287, 288, 297, 296
177, 244, 245, 254, 253, 289, 290, 299, 298
178, 245, 246, 255, 254, 290, 291, 300, 299
179, 246, 247, 256, 255, 291, 292, 301, 300
180, 247, 248, 257, 256, 292, 293, 302, 301
181, 248, 249, 258, 257, 293, 294, 303, 302
182, 249, 250, 259, 258, 294, 295, 304, 303
183, 250, 251, 260, 259, 295, 296, 305, 304
184, 251, 252, 261, 260, 296, 297, 306, 305
185, 253, 254, 263, 262, 298, 299, 308, 307
186, 254, 255, 264, 263, 299, 300, 309, 308
187, 255, 256, 265, 264, 300, 301, 310, 309
188, 256, 257, 266, 265, 301, 302, 311, 310
189, 257, 258, 267, 266, 302, 303, 312, 311
190, 258, 259, 268, 267, 303, 304, 313, 312
191, 259, 260, 269, 268, 304, 305, 314, 313
192, 260, 261, 270, 269, 305, 306, 315, 314
*ELEMENT, TYPE=C3D8, ELSET=UPPER
193, 316, 317, 328, 327, 360, 361, 372, 371
194, 317, 318, 329, 328, 361, 362, 373, 372
195, 318, 319, 330, 329, 362, 363, 374, 373
196, 319, 320, 331, 330, 363, 364, 375, 374
197, 320, 321, 332, 331, 364, 365, 376, 375
198, 321, 322, 333, 332, 365, 366, 377, 376
199, 322, 323, 334, 333, 366, 367, 378, 377
200, 323, 324, 335, 334, 367, 368, 379, 378
201, 324, 325, 336, 335, 368, 369, 380, 379
202, 325, 326, 337, 336, 369, 370, 381, 380
203, 327, 328, 339, 338, 371, 372, 383, 382
204, 328, 329, 340, 339, 372, 373, 384, 383
205, 329, 330, 341, 340, 373, 374, 385, 384
206, 330, 331, 342, 341, 374, 375, 386, 385
207, 331, 332, 343, 342, 375, 376, 387, 386
208, 332, 333, 344, 343, 376, 377, 388, 387
209, 333, 334, 345, 344, 377, 378, 389, 388
210, 334, 335, 346, 345, 378, 379, 390, 389
211, 335, 336, 347, 346, 379, 380, 391, 390
212, 336, 337, 348, 347, 380, 381, 392, 391
213, 338, 339, 350, 349, 382, 383, 394, 393
214, 339, 340, 351, 350, 383, 384, 395, 394
215, 340, 341, 352, 351, 384, 385, 396, 395
216, 341, 342, 353, 352, 385, 386, 397, 396
217, 342, 343, 354, 353, 386, 387, 398, 397
218, 343, 344, 355, 354, 387, 388, 399, 398
219, 344, 345, 356, 355, 388, 389, 400, 399
220, 345, 346, 357, 356, 389, 390, 401, 400
221, 346, 347, 358, 357, 390, 391, 402, 401
222, 347, 348, 359, 358, 391, 392, 403, 402
223, 360, 361, 372, 371, 404, 405, 416, 415
224, 361, 362, 373, 372, 405, 406, 417, 416
225, 362, 363, 374, 373, 406, 407, 418, 417
226, 363, 364, 375, 374, 407, 408, 419, 418
227, 364, 365, 376, 375, 408, 409, 420, 419
228, 365, 366, 377, 376, 409, 410, 421, 420
229, 366, 367, 378, 377, 410, 411, 422, 421
230, 367, 368, 379, 378, 411, 412, 423, 422
231, 368, 369, 380, 379, 412, 413, 424, 423
232, 369, 370, 381, 380, 413, 414, 425, 424
233, 371, 372, 383, 382, 415, 416, 427, 426
234, 372, 373, 384, 383, 416, 417, 428, 427
235, 373, 374, 385, 384, 417, 418, 429, 428
236, 374, 375, 386, 385, 418, 419, 430, 429
237, 375, 376, 387, 386, 419, 420, 431, 430
238, 376, 377, 388, 387, 420, 421, 432, 431
239, 377, 378, 389, 388, 421, 422, 433, 432
240, 378, 379, 390, 389, 422, 423, 434, 433
241, 379, 380, 391, 390, 423, 424, 435, 434
242, 380, 381, 392, 391, 424, 425, 436, 435
243, 382, 383, 394, 393, 426, 427, 438, 437
244, 383, 384, 395, 394, 427, 428, 439, 438
245, 384, 385, 396, 395, 428, 429, 440, 439
246, 385, 386, 397, 396, 429, 430, 441, 440
247, 386, 387, 398, 397, 430, 431, 442, 441
248, 387, 388, 399, 398, 431, 432, 443, 442
249, 388, 389, 400, 399, 432, 433, 444, 443
250, 389, 390, 401, 400, 433, 434, 445, 444
251, 390, 391, 402, 401, 434, 435, 446, 445
252, 391, 392, 403, 402, 435, 436, 447, 446
253, 404, 405, 416, 415, 448, 449, 460, 459
254, 405, 406, 417, 416, 449, 450, 461, 460
255, 406, 407, 418, 417, 450, 451, 462, 461
256, 407, 408, 419, 418, 451, 452, 463, 462
257, 408, 409, 420, 419, 452, 453, 464, 463
258, 409, 410, 421, 420, 453, 454, 465, 464
259, 410, 411, 422, 421, 454, 455, 466, 465
260, 411, 412, 423, 422, 455, 456, 467, 466
261, 412, 413, 424, 423, 456, 457, 468, 467
262, 413, 414, 425, 424, 457, 458, 469, 468
263, 415, 416, 427, 426, 459, 460, 471, 470
264, 416, 417, 428, 427, 460, 461, 472, 471
265, 417, 418, 429, 428, 461, 462, 473, 472
266, 418, 419, 430, 429, 462, 463, 474, 473
267, 419, 420, 431, 430, 463, 464, 475, 474
268, 420, 421, 432, 431, 464, 465, 476, 475
269, 421, 422, 433, 432, 465, 466, 477, 476
270, 422, 423, 434, 433, 466, 467, 478, 477
271, 423, 424, 435, 434, 467, 468, 479, 478
272, 424, 425, 436, 435, 468, 469, 480, 479
273, 426, 427, 438, 437, 470, 471, 482, 481
274, 427, 428, 439, 438, 471, 472, 483, 482
275, 428, 429, 440, 439, 472, 473, 484, 483
276, 429, 430, 441, 440, 473, 474, 485, 484
277, 430, 431, 442, 441, 474, 475, 486, 485
278, 431, 432, 443, 442, 475, 476, 487, 486
279, 432, 433, 444, 443, 476, 477, 488, 487
280, 433, 434, 445, 444, 477, 478, 489, 488
281, 434, 435, 446, 445, 478, 479, 490, 489
282, 435, 436, 447, 446, 479, 480, 491, 490
283, 448, 449, 460, 459, 492, 493, 504, 503
284, 449, 450, 461, 460, 493, 494, 505, 504
285, 450, 451, 462, 461, 494, 495, 506, 505
286, 451, 452, 463, 462, 495, 496, 507, 506
287, 452, 453, 464, 463, 496, 497, 508, 507
288, 453, 454, 465, 464, 497, 498, 509, 508
289, 454, 455, 466, 465, 498, 499, 510, 509
290, 455, 456, 467, 466, 499, 500, 511, 510
291, 456, 457, 468, 467, 500, 501, 512, 511
292, 457, 458, 469, 468, 501, 502, 513, 512
293, 459, 460, 471, 470, 503, 504, 515, 514
294, 460, 461, 472, 471, 504, 505, 516, 515
295, 461, 462, 473, 472, 505, 506, 517, 516
296, 462, 463, 474, 473, 506, 507, 518, 517
297, 463, 464, 475, 474, 507, 508, 519, 518
298, 464, 465, 476, 475, 508, 509, 520, 519
299, 465, 466, 477, 476, 509, 510, 521, 520
300, 466, 467, 478, 477, 510, 511, 522, 521
301, 467, 468, 479, 478, 511, 512, 523, 522
302, 468, 469, 480, 479, 512, 513, 524, 523
303, 470, 471, 482, 481, 514, 515, 526, 525
304, 471, 472, 483, 482, 515, 516, 527, 526
305, 472, 473, 484, 483, 516, 517, 528, 527
306, 473, 474, 485, 484, 517, 518, 529, 528
307, 474, 475, 486, 485, 518, 519, 530, 529
308, 475, 476, 487, 486, 519, 520, 531, 530
309, 476, 477, 488, 487, 520, 521, 532, 531
310, 477, 478, 489, 488, 521, 522, 533, 532
311, 478, 479, 490, 489, 522, 523, 534, 533
312, 479, 480, 491, 490, 523, 524, 535, 534
313, 492, 493, 504, 503, 536, 537, 548, 547
314, 493, 494, 505, 504, 537, 538, 549, 548
315, 494, 495, 506, 505, 538, 539, 550, 549
316, 495, 496, 507, 506, 539, 540, 551, 550
317, 496, 497, 508, 507, 540, 541, 552, 551
318, 497, 498, 509, 508, 541, 542, 553, 552
319, 498, 499, 510, 509, 542, 543, 554, 553
320, 499, 500, 511, 510, 543, 544, 555, 554
321, 500, 501, 512, 511, 544, 545, 556, 555
322, 501, 502, 513, 512, 545, 546, 557, 556
323, 503, 504, 515, 514, 547, 548, 559, 558
324, 504, 505, 516, 515, 548, 549, 560, 559
325, 505, 506, 517, 516, 549, 550, 561, 560
326, 506, 507, 518, 517, 550, 551, 562, 561
327, 507, 508, 519, 518, 551, 552, 563, 562
328, 508, 509, 520, 519, 552, 553, 564, 563
329, 509, 510, 521, 520, 553, 554, 565, 564
330, 510, 511, 522, 521, 554, 555, 566, 565
331, 511, 512, 523, 522, 555, 556, 567, 566
332, 512, 513, 524, 523, 556, 557, 568, 567
333, 514, 515, 526, 525, 558, 559, 570, 569
334, 515, 516, 527, 526, 559, 560, 571, 570
335, 516, 517, 528, 527, 560, 561, 572, 571
336, 517, 518, 529, 528, 561, 562, 573, 572
337, 518, 519, 530, 529, 562, 563, 574, 573
338, 519, 520, 531, 530, 563, 564, 575, 574
339, 520, 521, 532, 531, 564, 565, 576, 575
340, 521, 522, 533, 532, 565, 566, 577, 576
341, 522, 523, 534, 533, 566, 567, 578, 577
342, 523, 524, 535, 534, 567, 568, 579, 578
*NSET, NSET=lower_bottom
1, 2, 3, 4, 5, 6, 7, 8, 9, 46, 47, 48, 49, 50, 51, 52
53, 54, 91, 92, 93, 94, 95, 96, 97, 98, 99, 136, 137, 138, 139, 140
141, 142, 143, 144, 181, 182, 183, 184, 185, 186, 187, 188, 189, 226, 227, 228
229, 230, 231, 232, 233, 234, 271, 272, 273, 274, 275, 276, 277, 278, 279
*NSET, NSET=lower_top
37, 38, 39, 40, 41, 42, 43, 44, 45, 82, 83, 84, 85, 86, 87, 88
89, 90, 127, 128, 129, 130, 131, 132, 133, 134, 135, 172, 173, 174, 175, 176
177, 178, 179, 180, 217, 218, 219, 220, 221, 222, 223, 224, 225, 262, 263, 264
265, 266, 267, 268, 269, 270, 307, 308, 309, 310, 311, 312, 313, 314, 315
*NSET, NSET=upper_bottom
316, 317, 318, 319, 320, 321, 322, 323, 324, 325, 326, 360, 361, 362, 363, 364
365, 366, 367, 368, 369, 370, 404, 405, 406, 407, 408, 409, 410, 411, 412, 413
414, 448, 449, 450, 451, 452, 453, 454, 455, 456, 457, 458, 492, 493, 494, 495
496, 497, 498, 499, 500, 501, 502, 536, 537, 538, 539, 540, 541, 542, 543, 544
545, 546
*NSET, NSET=upper_top
349, 350, 351, 352, 353, 354, 355, 356, 357, 358, 359, 393, 394, 395, 396, 397
398, 399, 400, 401, 402, 403, 437, 438, 439, 440, 441, 442, 443, 444, 445, 446
447, 481, 482, 483, 484, 485, 486, 487, 488, 489, 490, 491, 525, 526, 527, 528
529, 530, 531, 532, 533, 534, 535, 569, 570, 571, 572, 573, 574, 575, 576, 577
578, 579
*NSET, NSET=sym_x
1, 10, 19, 28, 37, 46, 55, 64, 73, 82, 91, 100, 109, 118, 127, 136
145, 154, 163, 172, 181, 190, 199, 208, 217, 226, 235, 244, 253, 262, 271, 280
289, 298, 307, 316, 327, 338, 349, 360, 371, 382, 393, 404, 415, 426, 437, 448
459, 470, 481, 492, 503, 514, 525, 536, 547, 558, 569
*NSET, NSET=sym_z
1, 2, 3, 4, 5, 6, 7, 8, 9, 10, 11, 12, 13, 14, 15, 16
17, 18, 19, 20, 21, 22, 23, 24, 25, 26, 27, 28, 29, 30, 31, 32
33, 34, 35, 36, 37, 38, 39, 40, 41, 42, 43, 44, 45, 316, 317, 318
319, 320, 321, 322, 323, 324, 325, 326, 327, 328, 329, 330, 331, 332, 333, 334
335, 336, 337, 338, 339, 340, 341, 342, 343, 344, 345, 346, 347, 348, 349, 350
351, 352, 353, 354, 355, 356, 357, 358, 359
*NSET, NSET=lower_sym_x
1, 10, 19, 28, 37, 46, 55, 64, 73, 82, 91, 100, 109, 118, 127, 136
145, 154, 163, 172, 181, 190, 199, 208, 217, 226, 235, 244, 253, 262, 271, 280
289, 298, 307
*NSET, NSET=punch
349, 350, 351, 352, 353, 354, 393, 394, 395, 396, 397, 398, 437, 438, 439, 440
441, 442, 481, 482, 483, 484, 485, 486, 525, 526, 527, 528, 529, 530, 569, 570
571, 572, 573, 574
