** SparLab shell cross-validation mesh (python/scripts/make_shell_meshes.py)
** square box cantilever, S4R cells (read as SparLab's MITC4)
*NODE
1, 0, -0.05, -0.05
2, 0, -0.0375, -0.05
3, 0, -0.025, -0.05
4, 0, -0.0125, -0.05
5, 0, 0, -0.05
6, 0, 0.0125, -0.05
7, 0, 0.025, -0.05
8, 0, 0.0375, -0.05
9, 0, 0.05, -0.05
10, 0, 0.05, -0.0375
11, 0, 0.05, -0.025
12, 0, 0.05, -0.0125
13, 0, 0.05, 0
14, 0, 0.05, 0.0125
15, 0, 0.05, 0.025
16, 0, 0.05, 0.0375
17, 0, 0.05, 0.05
18, 0, 0.0375, 0.05
19, 0, 0.025, 0.05
20, 0, 0.0125, 0.05
21, 0, 0, 0.05
22, 0, -0.0125, 0.05
23, 0, -0.025, 0.05
24, 0, -0.0375, 0.05
25, 0, -0.05, 0.05
26, 0, -0.05, 0.0375
27, 0, -0.05, 0.025
28, 0, -0.05, 0.0125
29, 0, -0.05, 0
30, 0, -0.05, -0.0125
31, 0, -0.05, -0.025
32, 0, -0.05, -0.0375
33, 0.025, -0.05, -0.05
34, 0.025, -0.0375, -0.05
35, 0.025, -0.025, -0.05
36, 0.025, -0.0125, -0.05
37, 0.025, 0, -0.05
38, 0.025, 0.0125, -0.05
39, 0.025, 0.025, -0.05
40, 0.025, 0.0375, -0.05
41, 0.025, 0.05, -0.05
42, 0.025, 0.05, -0.0375
43, 0.025, 0.05, -0.025
44, 0.025, 0.05, -0.0125
45, 0.025, 0.05, 0
46, 0.025, 0.05, 0.0125
47, 0.025, 0.05, 0.025
48, 0.025, 0.05, 0.0375
49, 0.025, 0.05, 0.05
50, 0.025, 0.0375, 0.05
51, 0.025, 0.025, 0.05
52, 0.025, 0.0125, 0.05
53, 0.025, 0, 0.05
54, 0.025, -0.0125, 0.05
55, 0.025, -0.025, 0.05
56, 0.025, -0.0375, 0.05
57, 0.025, -0.05, 0.05
58, 0.025, -0.05, 0.0375
59, 0.025, -0.05, 0.025
60, 0.025, -0.05, 0.0125
61, 0.025, -0.05, 0
62, 0.025, -0.05, -0.0125
63, 0.025, -0.05, -0.025
64, 0.025, -0.05, -0.0375
65, 0.05, -0.05, -0.05
66, 0.05, -0.0375, -0.05
67, 0.05, -0.025, -0.05
68, 0.05, -0.0125, -0.05
69, 0.05, 0, -0.05
70, 0.05, 0.0125, -0.05
71, 0.05, 0.025, -0.05
72, 0.05, 0.0375, -0.05
73, 0.05, 0.05, -0.05
74, 0.05, 0.05, -0.0375
75, 0.05, 0.05, -0.025
76, 0.05, 0.05, -0.0125
77, 0.05, 0.05, 0
78, 0.05, 0.05, 0.0125
79, 0.05, 0.05, 0.025
80, 0.05, 0.05, 0.0375
81, 0.05, 0.05, 0.05
82, 0.05, 0.0375, 0.05
83, 0.05, 0.025, 0.05
84, 0.05, 0.0125, 0.05
85, 0.05, 0, 0.05
86, 0.05, -0.0125, 0.05
87, 0.05, -0.025, 0.05
88, 0.05, -0.0375, 0.05
89, 0.05, -0.05, 0.05
90, 0.05, -0.05, 0.0375
91, 0.05, -0.05, 0.025
92, 0.05, -0.05, 0.0125
93, 0.05, -0.05, 0
94, 0.05, -0.05, -0.0125
95, 0.05, -0.05, -0.025
96, 0.05, -0.05, -0.0375
97, 0.075, -0.05, -0.05
98, 0.075, -0.0375, -0.05
99, 0.075, -0.025, -0.05
100, 0.075, -0.0125, -0.05
101, 0.075, 0, -0.05
102, 0.075, 0.0125, -0.05
103, 0.075, 0.025, -0.05
104, 0.075, 0.0375, -0.05
105, 0.075, 0.05, -0.05
106, 0.075, 0.05, -0.0375
107, 0.075, 0.05, -0.025
108, 0.075, 0.05, -0.0125
109, 0.075, 0.05, 0
110, 0.075, 0.05, 0.0125
111, 0.075, 0.05, 0.025
112, 0.075, 0.05, 0.0375
113, 0.075, 0.05, 0.05
114, 0.075, 0.0375, 0.05
115, 0.075, 0.025, 0.05
116, 0.075, 0.0125, 0.05
117, 0.075, 0, 0.05
118, 0.075, -0.0125, 0.05
119, 0.075, -0.025, 0.05
120, 0.075, -0.0375, 0.05
121, 0.075, -0.05, 0.05
122, 0.075, -0.05, 0.0375
123, 0.075, -0.05, 0.025
124, 0.075, -0.05, 0.0125
125, 0.075, -0.05, 0
126, 0.075, -0.05, -0.0125
127, 0.075, -0.05, -0.025
128, 0.075, -0.05, -0.0375
129, 0.1, -0.05, -0.05
130, 0.1, -0.0375, -0.05
131, 0.1, -0.025, -0.05
132, 0.1, -0.0125, -0.05
133, 0.1, 0, -0.05
134, 0.1, 0.0125, -0.05
135, 0.1, 0.025, -0.05
136, 0.1, 0.0375, -0.05
137, 0.1, 0.05, -0.05
138, 0.1, 0.05, -0.0375
139, 0.1, 0.05, -0.025
140, 0.1, 0.05, -0.0125
141, 0.1, 0.05, 0
142, 0.1, 0.05, 0.0125
143, 0.1, 0.05, 0.025
144, 0.1, 0.05, 0.0375
145, 0.1, 0.05, 0.05
146, 0.1, 0.0375, 0.05
147, 0.1, 0.025, 0.05
148, 0.1, 0.0125, 0.05
149, 0.1, 0, 0.05
150, 0.1, -0.0125, 0.05
151, 0.1, -0.025, 0.05
152, 0.1, -0.0375, 0.05
153, 0.1, -0.05, 0.05
154, 0.1, -0.05, 0.0375
155, 0.1, -0.05, 0.025
156, 0.1, -0.05, 0.0125
157, 0.1, -0.05, 0
158, 0.1, -0.05, -0.0125
159, 0.1, -0.05, -0.025
160, 0.1, -0.05, -0.0375
161, 0.125, -0.05, -0.05
162, 0.125, -0.0375, -0.05
163, 0.125, -0.025, -0.05
164, 0.125, -0.0125, -0.05
165, 0.125, 0, -0.05
166, 0.125, 0.0125, -0.05
167, 0.125, 0.025, -0.05
168, 0.125, 0.0375, -0.05
169, 0.125, 0.05, -0.05
170, 0.125, 0.05, -0.0375
171, 0.125, 0.05, -0.025
172, 0.125, 0.05, -0.0125
173, 0.125, 0.05, 0
174, 0.125, 0.05, 0.0125
175, 0.125, 0.05, 0.025
176, 0.125, 0.05, 0.0375
177, 0.125, 0.05, 0.05
178, 0.125, 0.0375, 0.05
179, 0.125, 0.025, 0.05
180, 0.125, 0.0125, 0.05
181, 0.125, 0, 0.05
182, 0.125, -0.0125, 0.05
183, 0.125, -0.025, 0.05
184, 0.125, -0.0375, 0.05
185, 0.125, -0.05, 0.05
186, 0.125, -0.05, 0.0375
187, 0.125, -0.05, 0.025
188, 0.125, -0.05, 0.0125
189, 0.125, -0.05, 0
190, 0.125, -0.05, -0.0125
191, 0.125, -0.05, -0.025
192, 0.125, -0.05, -0.0375
193, 0.15, -0.05, -0.05
194, 0.15, -0.0375, -0.05
195, 0.15, -0.025, -0.05
196, 0.15, -0.0125, -0.05
197, 0.15, 0, -0.05
198, 0.15, 0.0125, -0.05
199, 0.15, 0.025, -0.05
200, 0.15, 0.0375, -0.05
201, 0.15, 0.05, -0.05
202, 0.15, 0.05, -0.0375
203, 0.15, 0.05, -0.025
204, 0.15, 0.05, -0.0125
205, 0.15, 0.05, 0
206, 0.15, 0.05, 0.0125
207, 0.15, 0.05, 0.025
208, 0.15, 0.05, 0.0375
209, 0.15, 0.05, 0.05
210, 0.15, 0.0375, 0.05
211, 0.15, 0.025, 0.05
212, 0.15, 0.0125, 0.05
213, 0.15, 0, 0.05
214, 0.15, -0.0125, 0.05
215, 0.15, -0.025, 0.05
216, 0.15, -0.0375, 0.05
217, 0.15, -0.05, 0.05
218, 0.15, -0.05, 0.0375
219, 0.15, -0.05, 0.025
220, 0.15, -0.05, 0.0125
221, 0.15, -0.05, 0
222, 0.15, -0.05, -0.0125
223, 0.15, -0.05, -0.025
224, 0.15, -0.05, -0.0375
225, 0.175, -0.05, -0.05
226, 0.175, -0.0375, -0.05
227, 0.175, -0.025, -0.05
228, 0.175, -0.0125, -0.05
229, 0.175, 0, -0.05
230, 0.175, 0.0125, -0.05
231, 0.175, 0.025, -0.05
232, 0.175, 0.0375, -0.05
233, 0.175, 0.05, -0.05
234, 0.175, 0.05, -0.0375
235, 0.175, 0.05, -0.025
236, 0.175, 0.05, -0.0125
237, 0.175, 0.05, 0
238, 0.175, 0.05, 0.0125
239, 0.175, 0.05, 0.025
240, 0.175, 0.05, 0.0375
241, 0.175, 0.05, 0.05
242, 0.175, 0.0375, 0.05
243, 0.175, 0.025, 0.05
244, 0.175, 0.0125, 0.05
245, 0.175, 0, 0.05
246, 0.175, -0.0125, 0.05
247, 0.175, -0.025, 0.05
248, 0.175, -0.0375, 0.05
249, 0.175, -0.05, 0.05
250, 0.175, -0.05, 0.0375
251, 0.175, -0.05, 0.025
252, 0.175, -0.05, 0.0125
253, 0.175, -0.05, 0
254, 0.175, -0.05, -0.0125
255, 0.175, -0.05, -0.025
256, 0.175, -0.05, -0.0375
257, 0.2, -0.05, -0.05
258, 0.2, -0.0375, -0.05
259, 0.2, -0.025, -0.05
260, 0.2, -0.0125, -0.05
261, 0.2, 0, -0.05
262, 0.2, 0.0125, -0.05
263, 0.2, 0.025, -0.05
264, 0.2, 0.0375, -0.05
265, 0.2, 0.05, -0.05
266, 0.2, 0.05, -0.0375
267, 0.2, 0.05, -0.025
268, 0.2, 0.05, -0.0125
269, 0.2, 0.05, 0
270, 0.2, 0.05, 0.0125
271, 0.2, 0.05, 0.025
272, 0.2, 0.05, 0.0375
273, 0.2, 0.05, 0.05
274, 0.2, 0.0375, 0.05
275, 0.2, 0.025, 0.05
276, 0.2, 0.0125, 0.05
277, 0.2, 0, 0.05
278, 0.2, -0.0125, 0.05
279, 0.2, -0.025, 0.05
280, 0.2, -0.0375, 0.05
281, 0.2, -0.05, 0.05
282, 0.2, -0.05, 0.0375
283, 0.2, -0.05, 0.025
284, 0.2, -0.05, 0.0125
285, 0.2, -0.05, 0
286, 0.2, -0.05, -0.0125
287, 0.2, -0.05, -0.025
288, 0.2, -0.05, -0.0375
289, 0.225, -0.05, -0.05
290, 0.225, -0.0375, -0.05
291, 0.225, -0.025, -0.05
292, 0.225, -0.0125, -0.05
293, 0.225, 0, -0.05
294, 0.225, 0.0125, -0.05
295, 0.225, 0.025, -0.05
296, 0.225, 0.0375, -0.05
297, 0.225, 0.05, -0.05
298, 0.225, 0.05, -0.0375
299, 0.225, 0.05, -0.025
300, 0.225, 0.05, -0.0125
301, 0.225, 0.05, 0
302, 0.225, 0.05, 0.0125
303, 0.225, 0.05, 0.025
304, 0.225, 0.05, 0.0375
305, 0.225, 0.05, 0.05
306, 0.225, 0.0375, 0.05
307, 0.225, 0.025, 0.05
308, 0.225, 0.0125, 0.05
309, 0.225, 0, 0.05
310, 0.225, -0.0125, 0.05
311, 0.225, -0.025, 0.05
312, 0.225, -0.0375, 0.05
313, 0.225, -0.05, 0.05
314, 0.225, -0.05, 0.0375
315, 0.225, -0.05, 0.025
316, 0.225, -0.05, 0.0125
317, 0.225, -0.05, 0
318, 0.225, -0.05, -0.0125
319, 0.225, -0.05, -0.025
320, 0.225, -0.05, -0.0375
321, 0.25, -0.05, -0.05
322, 0.25, -0.0375, -0.05
323, 0.25, -0.025, -0.05
324, 0.25, -0.0125, -0.05
325, 0.25, 0, -0.05
326, 0.25, 0.0125, -0.05
327, 0.25, 0.025, -0.05
328, 0.25, 0.0375, -0.05
329, 0.25, 0.05, -0.05
330, 0.25, 0.05, -0.0375
331, 0.25, 0.05, -0.025
332, 0.25, 0.05, -0.0125
333, 0.25, 0.05, 0
334, 0.25, 0.05, 0.0125
335, 0.25, 0.05, 0.025
336, 0.25, 0.05, 0.0375
337, 0.25, 0.05, 0.05
338, 0.25, 0.0375, 0.05
339, 0.25, 0.025, 0.05
340, 0.25, 0.0125, 0.05
341, 0.25, 0, 0.05
342, 0.25, -0.0125, 0.05
343, 0.25, -0.025, 0.05
344, 0.25, -0.0375, 0.05
345, 0.25, -0.05, 0.05
346, 0.25, -0.05, 0.0375
347, 0.25, -0.05, 0.025
348, 0.25, -0.05, 0.0125
349, 0.25, -0.05, 0
350, 0.25, -0.05, -0.0125
351, 0.25, -0.05, -0.025
352, 0.25, -0.05, -0.0375
353, 0.275, -0.05, -0.05
354, 0.275, -0.0375, -0.05
355, 0.275, -0.025, -0.05
356, 0.275, -0.0125, -0.05
357, 0.275, 0, -0.05
358, 0.275, 0.0125, -0.05
359, 0.275, 0.025, -0.05
360, 0.275, 0.0375, -0.05
361, 0.275, 0.05, -0.05
362, 0.275, 0.05, -0.0375
363, 0.275, 0.05, -0.025
364, 0.275, 0.05, -0.0125
365, 0.275, 0.05, 0
366, 0.275, 0.05, 0.0125
367, 0.275, 0.05, 0.025
368, 0.275, 0.05, 0.0375
369, 0.275, 0.05, 0.05
370, 0.275, 0.0375, 0.05
371, 0.275, 0.025, 0.05
372, 0.275, 0.0125, 0.05
373, 0.275, 0, 0.05
374, 0.275, -0.0125, 0.05
375, 0.275, -0.025, 0.05
376, 0.275, -0.0375, 0.05
377, 0.275, -0.05, 0.05
378, 0.275, -0.05, 0.0375
379, 0.275, -0.05, 0.025
380, 0.275, -0.05, 0.0125
381, 0.275, -0.05, 0
382, 0.275, -0.05, -0.0125
383, 0.275, -0.05, -0.025
384, 0.275, -0.05, -0.0375
385, 0.3, -0.05, -0.05
386, 0.3, -0.0375, -0.05
387, 0.3, -0.025, -0.05
388, 0.3, -0.0125, -0.05
389, 0.3, 0, -0.05
390, 0.3, 0.0125, -0.05
391, 0.3, 0.025, -0.05
392, 0.3, 0.0375, -0.05
393, 0.3, 0.05, -0.05
394, 0.3, 0.05, -0.0375
395, 0.3, 0.05, -0.025
396, 0.3, 0.05, -0.0125
397, 0.3, 0.05, 0
398, 0.3, 0.05, 0.0125
399, 0.3, 0.05, 0.025
400, 0.3, 0.05, 0.0375
401, 0.3, 0.05, 0.05
402, 0.3, 0.0375, 0.05
403, 0.3, 0.025, 0.05
404, 0.3, 0.0125, 0.05
405, 0.3, 0, 0.05
406, 0.3, -0.0125, 0.05
407, 0.3, -0.025, 0.05
408, 0.3, -0.0375, 0.05
409, 0.3, -0.05, 0.05
410, 0.3, -0.05, 0.0375
411, 0.3, -0.05, 0.025
412, 0.3, -0.05, 0.0125
413, 0.3, -0.05, 0
414, 0.3, -0.05, -0.0125
415, 0.3, -0.05, -0.025
416, 0.3, -0.05, -0.0375
417, 0.325, -0.05, -0.05
418, 0.325, -0.0375, -0.05
419, 0.325, -0.025, -0.05
420, 0.325, -0.0125, -0.05
421, 0.325, 0, -0.05
422, 0.325, 0.0125, -0.05
423, 0.325, 0.025, -0.05
424, 0.325, 0.0375, -0.05
425, 0.325, 0.05, -0.05
426, 0.325, 0.05, -0.0375
427, 0.325, 0.05, -0.025
428, 0.325, 0.05, -0.0125
429, 0.325, 0.05, 0
430, 0.325, 0.05, 0.0125
431, 0.325, 0.05, 0.025
432, 0.325, 0.05, 0.0375
433, 0.325, 0.05, 0.05
434, 0.325, 0.0375, 0.05
435, 0.325, 0.025, 0.05
436, 0.325, 0.0125, 0.05
437, 0.325, 0, 0.05
438, 0.325, -0.0125, 0.05
439, 0.325, -0.025, 0.05
440, 0.325, -0.0375, 0.05
441, 0.325, -0.05, 0.05
442, 0.325, -0.05, 0.0375
443, 0.325, -0.05, 0.025
444, 0.325, -0.05, 0.0125
445, 0.325, -0.05, 0
446, 0.325, -0.05, -0.0125
447, 0.325, -0.05, -0.025
448, 0.325, -0.05, -0.0375
449, 0.35, -0.05, -0.05
450, 0.35, -0.0375, -0.05
451, 0.35, -0.025, -0.05
452, 0.35, -0.0125, -0.05
453, 0.35, 0, -0.05
454, 0.35, 0.0125, -0.05
455, 0.35, 0.025, -0.05
456, 0.35, 0.0375, -0.05
457, 0.35, 0.05, -0.05
458, 0.35, 0.05, -0.0375
459, 0.35, 0.05, -0.025
460, 0.35, 0.05, -0.0125
461, 0.35, 0.05, 0
462, 0.35, 0.05, 0.0125
463, 0.35, 0.05, 0.025
464, 0.35, 0.05, 0.0375
465, 0.35, 0.05, 0.05
466, 0.35, 0.0375, 0.05
467, 0.35, 0.025, 0.05
468, 0.35, 0.0125, 0.05
469, 0.35, 0, 0.05
470, 0.35, -0.0125, 0.05
471, 0.35, -0.025, 0.05
472, 0.35, -0.0375, 0.05
473, 0.35, -0.05, 0.05
474, 0.35, -0.05, 0.0375
475, 0.35, -0.05, 0.025
476, 0.35, -0.05, 0.0125
477, 0.35, -0.05, 0
478, 0.35, -0.05, -0.0125
479, 0.35, -0.05, -0.025
480, 0.35, -0.05, -0.0375
481, 0.375, -0.05, -0.05
482, 0.375, -0.0375, -0.05
483, 0.375, -0.025, -0.05
484, 0.375, -0.0125, -0.05
485, 0.375, 0, -0.05
486, 0.375, 0.0125, -0.05
487, 0.375, 0.025, -0.05
488, 0.375, 0.0375, -0.05
489, 0.375, 0.05, -0.05
490, 0.375, 0.05, -0.0375
491, 0.375, 0.05, -0.025
492, 0.375, 0.05, -0.0125
493, 0.375, 0.05, 0
494, 0.375, 0.05, 0.0125
495, 0.375, 0.05, 0.025
496, 0.375, 0.05, 0.0375
497, 0.375, 0.05, 0.05
498, 0.375, 0.0375, 0.05
499, 0.375, 0.025, 0.05
500, 0.375, 0.0125, 0.05
501, 0.375, 0, 0.05
502, 0.375, -0.0125, 0.05
503, 0.375, -0.025, 0.05
504, 0.375, -0.0375, 0.05
505, 0.375, -0.05, 0.05
506, 0.375, -0.05, 0.0375
507, 0.375, -0.05, 0.025
508, 0.375, -0.05, 0.0125
509, 0.375, -0.05, 0
510, 0.375, -0.05, -0.0125
511, 0.375, -0.05, -0.025
512, 0.375, -0.05, -0.0375
513, 0.4, -0.05, -0.05
514, 0.4, -0.0375, -0.05
515, 0.4, -0.025, -0.05
516, 0.4, -0.0125, -0.05
517, 0.4, 0, -0.05
518, 0.4, 0.0125, -0.05
519, 0.4, 0.025, -0.05
520, 0.4, 0.0375, -0.05
521, 0.4, 0.05, -0.05
522, 0.4, 0.05, -0.0375
523, 0.4, 0.05, -0.025
524, 0.4, 0.05, -0.0125
525, 0.4, 0.05, 0
526, 0.4, 0.05, 0.0125
527, 0.4, 0.05, 0.025
528, 0.4, 0.05, 0.0375
529, 0.4, 0.05, 0.05
530, 0.4, 0.0375, 0.05
531, 0.4, 0.025, 0.05
532, 0.4, 0.0125, 0.05
533, 0.4, 0, 0.05
534, 0.4, -0.0125, 0.05
535, 0.4, -0.025, 0.05
536, 0.4, -0.0375, 0.05
537, 0.4, -0.05, 0.05
538, 0.4, -0.05, 0.0375
539, 0.4, -0.05, 0.025
540, 0.4, -0.05, 0.0125
541, 0.4, -0.05, 0
542, 0.4, -0.05, -0.0125
543, 0.4, -0.05, -0.025
544, 0.4, -0.05, -0.0375
545, 0.425, -0.05, -0.05
546, 0.425, -0.0375, -0.05
547, 0.425, -0.025, -0.05
548, 0.425, -0.0125, -0.05
549, 0.425, 0, -0.05
550, 0.425, 0.0125, -0.05
551, 0.425, 0.025, -0.05
552, 0.425, 0.0375, -0.05
553, 0.425, 0.05, -0.05
554, 0.425, 0.05, -0.0375
555, 0.425, 0.05, -0.025
556, 0.425, 0.05, -0.0125
557, 0.425, 0.05, 0
558, 0.425, 0.05, 0.0125
559, 0.425, 0.05, 0.025
560, 0.425, 0.05, 0.0375
561, 0.425, 0.05, 0.05
562, 0.425, 0.0375, 0.05
563, 0.425, 0.025, 0.05
564, 0.425, 0.0125, 0.05
565, 0.425, 0, 0.05
566, 0.425, -0.0125, 0.05
567, 0.425, -0.025, 0.05
568, 0.425, -0.0375, 0.05
569, 0.425, -0.05, 0.05
570, 0.425, -0.05, 0.0375
571, 0.425, -0.05, 0.025
572, 0.425, -0.05, 0.0125
573, 0.425, -0.05, 0
574, 0.425, -0.05, -0.0125
575, 0.425, -0.05, -0.025
576, 0.425, -0.05, -0.0375
577, 0.45, -0.05, -0.05
578, 0.45, -0.0375, -0.05
579, 0.45, -0.025, -0.05
580, 0.45, -0.0125, -0.05
581, 0.45, 0, -0.05
582, 0.45, 0.0125, -0.05
583, 0.45, 0.025, -0.05
584, 0.45, 0.0375, -0.05
585, 0.45, 0.05, -0.05
586, 0.45, 0.05, -0.0375
587, 0.45, 0.05, -0.025
588, 0.45, 0.05, -0.0125
589, 0.45, 0.05, 0
590, 0.45, 0.05, 0.0125
591, 0.45, 0.05, 0.025
592, 0.45, 0.05, 0.0375
593, 0.45, 0.05, 0.05
594, 0.45, 0.0375, 0.05
595, 0.45, 0.025, 0.05
596, 0.45, 0.0125, 0.05
597, 0.45, 0, 0.05
598, 0.45, -0.0125, 0.05
599, 0.45, -0.025, 0.05
600, 0.45, -0.0375, 0.05
601, 0.45, -0.05, 0.05
602, 0.45, -0.05, 0.0375
603, 0.45, -0.05, 0.025
604, 0.45, -0.05, 0.0125
605, 0.45, -0.05, 0
606, 0.45, -0.05, -0.0125
607, 0.45, -0.05, -0.025
608, 0.45, -0.05, -0.0375
609, 0.475, -0.05, -0.05
610, 0.475, -0.0375, -0.05
611, 0.475, -0.025, -0.05
612, 0.475, -0.0125, -0.05
613, 0.475, 0, -0.05
614, 0.475, 0.0125, -0.05
615, 0.475, 0.025, -0.05
616, 0.475, 0.0375, -0.05
617, 0.475, 0.05, -0.05
618, 0.475, 0.05, -0.0375
619, 0.475, 0.05, -0.025
620, 0.475, 0.05, -0.0125
621, 0.475, 0.05, 0
622, 0.475, 0.05, 0.0125
623, 0.475, 0.05, 0.025
624, 0.475, 0.05, 0.0375
625, 0.475, 0.05, 0.05
626, 0.475, 0.0375, 0.05
627, 0.475, 0.025, 0.05
628, 0.475, 0.0125, 0.05
629, 0.475, 0, 0.05
630, 0.475, -0.0125, 0.05
631, 0.475, -0.025, 0.05
632, 0.475, -0.0375, 0.05
633, 0.475, -0.05, 0.05
634, 0.475, -0.05, 0.0375
635, 0.475, -0.05, 0.025
636, 0.475, -0.05, 0.0125
637, 0.475, -0.05, 0
638, 0.475, -0.05, -0.0125
639, 0.475, -0.05, -0.025
640, 0.475, -0.05, -0.0375
641, 0.5, -0.05, -0.05
642, 0.5, -0.0375, -0.05
643, 0.5, -0.025, -0.05
644, 0.5, -0.0125, -0.05
645, 0.5, 0, -0.05
646, 0.5, 0.0125, -0.05
647, 0.5, 0.025, -0.05
648, 0.5, 0.0375, -0.05
649, 0.5, 0.05, -0.05
650, 0.5, 0.05, -0.0375
651, 0.5, 0.05, -0.025
652, 0.5, 0.05, -0.0125
653, 0.5, 0.05, 0
654, 0.5, 0.05, 0.0125
655, 0.5, 0.05, 0.025
656, 0.5, 0.05, 0.0375
657, 0.5, 0.05, 0.05
658, 0.5, 0.0375, 0.05
659, 0.5, 0.025, 0.05
660, 0.5, 0.0125, 0.05
661, 0.5, 0, 0.05
662, 0.5, -0.0125, 0.05
663, 0.5, -0.025, 0.05
664, 0.5, -0.0375, 0.05
665, 0.5, -0.05, 0.05
666, 0.5, -0.05, 0.0375
667, 0.5, -0.05, 0.025
668, 0.5, -0.05, 0.0125
669, 0.5, -0.05, 0
670, 0.5, -0.05, -0.0125
671, 0.5, -0.05, -0.025
672, 0.5, -0.05, -0.0375
673, 0.525, -0.05, -0.05
674, 0.525, -0.0375, -0.05
675, 0.525, -0.025, -0.05
676, 0.525, -0.0125, -0.05
677, 0.525, 0, -0.05
678, 0.525, 0.0125, -0.05
679, 0.525, 0.025, -0.05
680, 0.525, 0.0375, -0.05
681, 0.525, 0.05, -0.05
682, 0.525, 0.05, -0.0375
683, 0.525, 0.05, -0.025
684, 0.525, 0.05, -0.0125
685, 0.525, 0.05, 0
686, 0.525, 0.05, 0.0125
687, 0.525, 0.05, 0.025
688, 0.525, 0.05, 0.0375
689, 0.525, 0.05, 0.05
690, 0.525, 0.0375, 0.05
691, 0.525, 0.025, 0.05
692, 0.525, 0.0125, 0.05
693, 0.525, 0, 0.05
694, 0.525, -0.0125, 0.05
695, 0.525, -0.025, 0.05
696, 0.525, -0.0375, 0.05
697, 0.525, -0.05, 0.05
698, 0.525, -0.05, 0.0375
699, 0.525, -0.05, 0.025
700, 0.525, -0.05, 0.0125
701, 0.525, -0.05, 0
702, 0.525, -0.05, -0.0125
703, 0.525, -0.05, -0.025
704, 0.525, -0.05, -0.0375
705, 0.55, -0.05, -0.05
706, 0.55, -0.0375, -0.05
707, 0.55, -0.025, -0.05
708, 0.55, -0.0125, -0.05
709, 0.55, 0, -0.05
710, 0.55, 0.0125, -0.05
711, 0.55, 0.025, -0.05
712, 0.55, 0.0375, -0.05
713, 0.55, 0.05, -0.05
714, 0.55, 0.05, -0.0375
715, 0.55, 0.05, -0.025
716, 0.55, 0.05, -0.0125
717, 0.55, 0.05, 0
718, 0.55, 0.05, 0.0125
719, 0.55, 0.05, 0.025
720, 0.55, 0.05, 0.0375
721, 0.55, 0.05, 0.05
722, 0.55, 0.0375, 0.05
723, 0.55, 0.025, 0.05
724, 0.55, 0.0125, 0.05
725, 0.55, 0, 0.05
726, 0.55, -0.0125, 0.05
727, 0.55, -0.025, 0.05
728, 0.55, -0.0375, 0.05
729, 0.55, -0.05, 0.05
730, 0.55, -0.05, 0.0375
731, 0.55, -0.05, 0.025
732, 0.55, -0.05, 0.0125
733, 0.55, -0.05, 0
734, 0.55, -0.05, -0.0125
735, 0.55, -0.05, -0.025
736, 0.55, -0.05, -0.0375
737, 0.575, -0.05, -0.05
738, 0.575, -0.0375, -0.05
739, 0.575, -0.025, -0.05
740, 0.575, -0.0125, -0.05
741, 0.575, 0, -0.05
742, 0.575, 0.0125, -0.05
743, 0.575, 0.025, -0.05
744, 0.575, 0.0375, -0.05
745, 0.575, 0.05, -0.05
746, 0.575, 0.05, -0.0375
747, 0.575, 0.05, -0.025
748, 0.575, 0.05, -0.0125
749, 0.575, 0.05, 0
750, 0.575, 0.05, 0.0125
751, 0.575, 0.05, 0.025
752, 0.575, 0.05, 0.0375
753, 0.575, 0.05, 0.05
754, 0.575, 0.0375, 0.05
755, 0.575, 0.025, 0.05
756, 0.575, 0.0125, 0.05
757, 0.575, 0, 0.05
758, 0.575, -0.0125, 0.05
759, 0.575, -0.025, 0.05
760, 0.575, -0.0375, 0.05
761, 0.575, -0.05, 0.05
762, 0.575, -0.05, 0.0375
763, 0.575, -0.05, 0.025
764, 0.575, -0.05, 0.0125
765, 0.575, -0.05, 0
766, 0.575, -0.05, -0.0125
767, 0.575, -0.05, -0.025
768, 0.575, -0.05, -0.0375
769, 0.6, -0.05, -0.05
770, 0.6, -0.0375, -0.05
771, 0.6, -0.025, -0.05
772, 0.6, -0.0125, -0.05
773, 0.6, 0, -0.05
774, 0.6, 0.0125, -0.05
775, 0.6, 0.025, -0.05
776, 0.6, 0.0375, -0.05
777, 0.6, 0.05, -0.05
778, 0.6, 0.05, -0.0375
779, 0.6, 0.05, -0.025
780, 0.6, 0.05, -0.0125
781, 0.6, 0.05, 0
782, 0.6, 0.05, 0.0125
783, 0.6, 0.05, 0.025
784, 0.6, 0.05, 0.0375
785, 0.6, 0.05, 0.05
786, 0.6, 0.0375, 0.05
787, 0.6, 0.025, 0.05
788, 0.6, 0.0125, 0.05
789, 0.6, 0, 0.05
790, 0.6, -0.0125, 0.05
791, 0.6, -0.025, 0.05
792, 0.6, -0.0375, 0.05
793, 0.6, -0.05, 0.05
794, 0.6, -0.05, 0.0375
795, 0.6, -0.05, 0.025
796, 0.6, -0.05, 0.0125
797, 0.6, -0.05, 0
798, 0.6, -0.05, -0.0125
799, 0.6, -0.05, -0.025
800, 0.6, -0.05, -0.0375
801, 0.625, -0.05, -0.05
802, 0.625, -0.0375, -0.05
803, 0.625, -0.025, -0.05
804, 0.625, -0.0125, -0.05
805, 0.625, 0, -0.05
806, 0.625, 0.0125, -0.05
807, 0.625, 0.025, -0.05
808, 0.625, 0.0375, -0.05
809, 0.625, 0.05, -0.05
810, 0.625, 0.05, -0.0375
811, 0.625, 0.05, -0.025
812, 0.625, 0.05, -0.0125
813, 0.625, 0.05, 0
814, 0.625, 0.05, 0.0125
815, 0.625, 0.05, 0.025
816, 0.625, 0.05, 0.0375
817, 0.625, 0.05, 0.05
818, 0.625, 0.0375, 0.05
819, 0.625, 0.025, 0.05
820, 0.625, 0.0125, 0.05
821, 0.625, 0, 0.05
822, 0.625, -0.0125, 0.05
823, 0.625, -0.025, 0.05
824, 0.625, -0.0375, 0.05
825, 0.625, -0.05, 0.05
826, 0.625, -0.05, 0.0375
827, 0.625, -0.05, 0.025
828, 0.625, -0.05, 0.0125
829, 0.625, -0.05, 0
830, 0.625, -0.05, -0.0125
831, 0.625, -0.05, -0.025
832, 0.625, -0.05, -0.0375
833, 0.65, -0.05, -0.05
834, 0.65, -0.0375, -0.05
835, 0.65, -0.025, -0.05
836, 0.65, -0.0125, -0.05
837, 0.65, 0, -0.05
838, 0.65, 0.0125, -0.05
839, 0.65, 0.025, -0.05
840, 0.65, 0.0375, -0.05
841, 0.65, 0.05, -0.05
842, 0.65, 0.05, -0.0375
843, 0.65, 0.05, -0.025
844, 0.65, 0.05, -0.0125
845, 0.65, 0.05, 0
846, 0.65, 0.05, 0.0125
847, 0.65, 0.05, 0.025
848, 0.65, 0.05, 0.0375
849, 0.65, 0.05, 0.05
850, 0.65, 0.0375, 0.05
851, 0.65, 0.025, 0.05
852, 0.65, 0.0125, 0.05
853, 0.65, 0, 0.05
854, 0.65, -0.0125, 0.05
855, 0.65, -0.025, 0.05
856, 0.65, -0.0375, 0.05
857, 0.65, -0.05, 0.05
858, 0.65, -0.05, 0.0375
859, 0.65, -0.05, 0.025
860, 0.65, -0.05, 0.0125
861, 0.65, -0.05, 0
862, 0.65, -0.05, -0.0125
863, 0.65, -0.05, -0.025
864, 0.65, -0.05, -0.0375
865, 0.675, -0.05, -0.05
866, 0.675, -0.0375, -0.05
867, 0.675, -0.025, -0.05
868, 0.675, -0.0125, -0.05
869, 0.675, 0, -0.05
870, 0.675, 0.0125, -0.05
871, 0.675, 0.025, -0.05
872, 0.675, 0.0375, -0.05
873, 0.675, 0.05, -0.05
874, 0.675, 0.05, -0.0375
875, 0.675, 0.05, -0.025
876, 0.675, 0.05, -0.0125
877, 0.675, 0.05, 0
878, 0.675, 0.05, 0.0125
879, 0.675, 0.05, 0.025
880, 0.675, 0.05, 0.0375
881, 0.675, 0.05, 0.05
882, 0.675, 0.0375, 0.05
883, 0.675, 0.025, 0.05
884, 0.675, 0.0125, 0.05
885, 0.675, 0, 0.05
886, 0.675, -0.0125, 0.05
887, 0.675, -0.025, 0.05
888, 0.675, -0.0375, 0.05
889, 0.675, -0.05, 0.05
890, 0.675, -0.05, 0.0375
891, 0.675, -0.05, 0.025
892, 0.675, -0.05, 0.0125
893, 0.675, -0.05, 0
894, 0.675, -0.05, -0.0125
895, 0.675, -0.05, -0.025
896, 0.675, -0.05, -0.0375
897, 0.7, -0.05, -0.05
898, 0.7, -0.0375, -0.05
899, 0.7, -0.025, -0.05
900, 0.7, -0.0125, -0.05
901, 0.7, 0, -0.05
902, 0.7, 0.0125, -0.05
903, 0.7, 0.025, -0.05
904, 0.7, 0.0375, -0.05
905, 0.7, 0.05, -0.05
906, 0.7, 0.05, -0.0375
907, 0.7, 0.05, -0.025
908, 0.7, 0.05, -0.0125
909, 0.7, 0.05, 0
910, 0.7, 0.05, 0.0125
911, 0.7, 0.05, 0.025
912, 0.7, 0.05, 0.0375
913, 0.7, 0.05, 0.05
914, 0.7, 0.0375, 0.05
915, 0.7, 0.025, 0.05
916, 0.7, 0.0125, 0.05
917, 0.7, 0, 0.05
918, 0.7, -0.0125, 0.05
919, 0.7, -0.025, 0.05
920, 0.7, -0.0375, 0.05
921, 0.7, -0.05, 0.05
922, 0.7, -0.05, 0.0375
923, 0.7, -0.05, 0.025
924, 0.7, -0.05, 0.0125
925, 0.7, -0.05, 0
926, 0.7, -0.05, -0.0125
927, 0.7, -0.05, -0.025
928, 0.7, -0.05, -0.0375
929, 0.725, -0.05, -0.05
930, 0.725, -0.0375, -0.05
931, 0.725, -0.025, -0.05
932, 0.725, -0.0125, -0.05
933, 0.725, 0, -0.05
934, 0.725, 0.0125, -0.05
935, 0.725, 0.025, -0.05
936, 0.725, 0.0375, -0.05
937, 0.725, 0.05, -0.05
938, 0.725, 0.05, -0.0375
939, 0.725, 0.05, -0.025
940, 0.725, 0.05, -0.0125
941, 0.725, 0.05, 0
942, 0.725, 0.05, 0.0125
943, 0.725, 0.05, 0.025
944, 0.725, 0.05, 0.0375
945, 0.725, 0.05, 0.05
946, 0.725, 0.0375, 0.05
947, 0.725, 0.025, 0.05
948, 0.725, 0.0125, 0.05
949, 0.725, 0, 0.05
950, 0.725, -0.0125, 0.05
951, 0.725, -0.025, 0.05
952, 0.725, -0.0375, 0.05
953, 0.725, -0.05, 0.05
954, 0.725, -0.05, 0.0375
955, 0.725, -0.05, 0.025
956, 0.725, -0.05, 0.0125
957, 0.725, -0.05, 0
958, 0.725, -0.05, -0.0125
959, 0.725, -0.05, -0.025
960, 0.725, -0.05, -0.0375
961, 0.75, -0.05, -0.05
962, 0.75, -0.0375, -0.05
963, 0.75, -0.025, -0.05
964, 0.75, -0.0125, -0.05
965, 0.75, 0, -0.05
966, 0.75, 0.0125, -0.05
967, 0.75, 0.025, -0.05
968, 0.75, 0.0375, -0.05
969, 0.75, 0.05, -0.05
970, 0.75, 0.05, -0.0375
971, 0.75, 0.05, -0.025
972, 0.75, 0.05, -0.0125
973, 0.75, 0.05, 0
974, 0.75, 0.05, 0.0125
975, 0.75, 0.05, 0.025
976, 0.75, 0.05, 0.0375
977, 0.75, 0.05, 0.05
978, 0.75, 0.0375, 0.05
979, 0.75, 0.025, 0.05
980, 0.75, 0.0125, 0.05
981, 0.75, 0, 0.05
982, 0.75, -0.0125, 0.05
983, 0.75, -0.025, 0.05
984, 0.75, -0.0375, 0.05
985, 0.75, -0.05, 0.05
986, 0.75, -0.05, 0.0375
987, 0.75, -0.05, 0.025
988, 0.75, -0.05, 0.0125
989, 0.75, -0.05, 0
990, 0.75, -0.05, -0.0125
991, 0.75, -0.05, -0.025
992, 0.75, -0.05, -0.0375
993, 0.775, -0.05, -0.05
994, 0.775, -0.0375, -0.05
995, 0.775, -0.025, -0.05
996, 0.775, -0.0125, -0.05
997, 0.775, 0, -0.05
998, 0.775, 0.0125, -0.05
999, 0.775, 0.025, -0.05
1000, 0.775, 0.0375, -0.05
1001, 0.775, 0.05, -0.05
1002, 0.775, 0.05, -0.0375
1003, 0.775, 0.05, -0.025
1004, 0.775, 0.05, -0.0125
1005, 0.775, 0.05, 0
1006, 0.775, 0.05, 0.0125
1007, 0.775, 0.05, 0.025
1008, 0.775, 0.05, 0.0375
1009, 0.775, 0.05, 0.05
1010, 0.775, 0.0375, 0.05
1011, 0.775, 0.025, 0.05
1012, 0.775, 0.0125, 0.05
1013, 0.775, 0, 0.05
1014, 0.775, -0.0125, 0.05
1015, 0.775, -0.025, 0.05
1016, 0.775, -0.0375, 0.05
1017, 0.775, -0.05, 0.05
1018, 0.775, -0.05, 0.0375
1019, 0.775, -0.05, 0.025
1020, 0.775, -0.05, 0.0125
1021, 0.775, -0.05, 0
1022, 0.775, -0.05, -0.0125
1023, 0.775, -0.05, -0.025
1024, 0.775, -0.05, -0.0375
1025, 0.8, -0.05, -0.05
1026, 0.8, -0.0375, -0.05
1027, 0.8, -0.025, -0.05
1028, 0.8, -0.0125, -0.05
1029, 0.8, 0, -0.05
1030, 0.8, 0.0125, -0.05
1031, 0.8, 0.025, -0.05
1032, 0.8, 0.0375, -0.05
1033, 0.8, 0.05, -0.05
1034, 0.8, 0.05, -0.0375
1035, 0.8, 0.05, -0.025
1036, 0.8, 0.05, -0.0125
1037, 0.8, 0.05, 0
1038, 0.8, 0.05, 0.0125
1039, 0.8, 0.05, 0.025
1040, 0.8, 0.05, 0.0375
1041, 0.8, 0.05, 0.05
1042, 0.8, 0.0375, 0.05
1043, 0.8, 0.025, 0.05
1044, 0.8, 0.0125, 0.05
1045, 0.8, 0, 0.05
1046, 0.8, -0.0125, 0.05
1047, 0.8, -0.025, 0.05
1048, 0.8, -0.0375, 0.05
1049, 0.8, -0.05, 0.05
1050, 0.8, -0.05, 0.0375
1051, 0.8, -0.05, 0.025
1052, 0.8, -0.05, 0.0125
1053, 0.8, -0.05, 0
1054, 0.8, -0.05, -0.0125
1055, 0.8, -0.05, -0.025
1056, 0.8, -0.05, -0.0375
1057, 0.825, -0.05, -0.05
1058, 0.825, -0.0375, -0.05
1059, 0.825, -0.025, -0.05
1060, 0.825, -0.0125, -0.05
1061, 0.825, 0, -0.05
1062, 0.825, 0.0125, -0.05
1063, 0.825, 0.025, -0.05
1064, 0.825, 0.0375, -0.05
1065, 0.825, 0.05, -0.05
1066, 0.825, 0.05, -0.0375
1067, 0.825, 0.05, -0.025
1068, 0.825, 0.05, -0.0125
1069, 0.825, 0.05, 0
1070, 0.825, 0.05, 0.0125
1071, 0.825, 0.05, 0.025
1072, 0.825, 0.05, 0.0375
1073, 0.825, 0.05, 0.05
1074, 0.825, 0.0375, 0.05
1075, 0.825, 0.025, 0.05
1076, 0.825, 0.0125, 0.05
1077, 0.825, 0, 0.05
1078, 0.825, -0.0125, 0.05
1079, 0.825, -0.025, 0.05
1080, 0.825, -0.0375, 0.05
1081, 0.825, -0.05, 0.05
1082, 0.825, -0.05, 0.0375
1083, 0.825, -0.05, 0.025
1084, 0.825, -0.05, 0.0125
1085, 0.825, -0.05, 0
1086, 0.825, -0.05, -0.0125
1087, 0.825, -0.05, -0.025
1088, 0.825, -0.05, -0.0375
1089, 0.85, -0.05, -0.05
1090, 0.85, -0.0375, -0.05
1091, 0.85, -0.025, -0.05
1092, 0.85, -0.0125, -0.05
1093, 0.85, 0, -0.05
1094, 0.85, 0.0125, -0.05
1095, 0.85, 0.025, -0.05
1096, 0.85, 0.0375, -0.05
1097, 0.85, 0.05, -0.05
1098, 0.85, 0.05, -0.0375
1099, 0.85, 0.05, -0.025
1100, 0.85, 0.05, -0.0125
1101, 0.85, 0.05, 0
1102, 0.85, 0.05, 0.0125
1103, 0.85, 0.05, 0.025
1104, 0.85, 0.05, 0.0375
1105, 0.85, 0.05, 0.05
1106, 0.85, 0.0375, 0.05
1107, 0.85, 0.025, 0.05
1108, 0.85, 0.0125, 0.05
1109, 0.85, 0, 0.05
1110, 0.85, -0.0125, 0.05
1111, 0.85, -0.025, 0.05
1112, 0.85, -0.0375, 0.05
1113, 0.85, -0.05, 0.05
1114, 0.85, -0.05, 0.0375
1115, 0.85, -0.05, 0.025
1116, 0.85, -0.05, 0.0125
1117, 0.85, -0.05, 0
1118, 0.85, -0.05, -0.0125
1119, 0.85, -0.05, -0.025
1120, 0.85, -0.05, -0.0375
1121, 0.875, -0.05, -0.05
1122, 0.875, -0.0375, -0.05
1123, 0.875, -0.025, -0.05
1124, 0.875, -0.0125, -0.05
1125, 0.875, 0, -0.05
1126, 0.875, 0.0125, -0.05
1127, 0.875, 0.025, -0.05
1128, 0.875, 0.0375, -0.05
1129, 0.875, 0.05, -0.05
1130, 0.875, 0.05, -0.0375
1131, 0.875, 0.05, -0.025
1132, 0.875, 0.05, -0.0125
1133, 0.875, 0.05, 0
1134, 0.875, 0.05, 0.0125
1135, 0.875, 0.05, 0.025
1136, 0.875, 0.05, 0.0375
1137, 0.875, 0.05, 0.05
1138, 0.875, 0.0375, 0.05
1139, 0.875, 0.025, 0.05
1140, 0.875, 0.0125, 0.05
1141, 0.875, 0, 0.05
1142, 0.875, -0.0125, 0.05
1143, 0.875, -0.025, 0.05
1144, 0.875, -0.0375, 0.05
1145, 0.875, -0.05, 0.05
1146, 0.875, -0.05, 0.0375
1147, 0.875, -0.05, 0.025
1148, 0.875, -0.05, 0.0125
1149, 0.875, -0.05, 0
1150, 0.875, -0.05, -0.0125
1151, 0.875, -0.05, -0.025
1152, 0.875, -0.05, -0.0375
1153, 0.9, -0.05, -0.05
1154, 0.9, -0.0375, -0.05
1155, 0.9, -0.025, -0.05
1156, 0.9, -0.0125, -0.05
1157, 0.9, 0, -0.05
1158, 0.9, 0.0125, -0.05
1159, 0.9, 0.025, -0.05
1160, 0.9, 0.0375, -0.05
1161, 0.9, 0.05, -0.05
1162, 0.9, 0.05, -0.0375
1163, 0.9, 0.05, -0.025
1164, 0.9, 0.05, -0.0125
1165, 0.9, 0.05, 0
1166, 0.9, 0.05, 0.0125
1167, 0.9, 0.05, 0.025
1168, 0.9, 0.05, 0.0375
1169, 0.9, 0.05, 0.05
1170, 0.9, 0.0375, 0.05
1171, 0.9, 0.025, 0.05
1172, 0.9, 0.0125, 0.05
1173, 0.9, 0, 0.05
1174, 0.9, -0.0125, 0.05
1175, 0.9, -0.025, 0.05
1176, 0.9, -0.0375, 0.05
1177, 0.9, -0.05, 0.05
1178, 0.9, -0.05, 0.0375
1179, 0.9, -0.05, 0.025
1180, 0.9, -0.05, 0.0125
1181, 0.9, -0.05, 0
1182, 0.9, -0.05, -0.0125
1183, 0.9, -0.05, -0.025
1184, 0.9, -0.05, -0.0375
1185, 0.925, -0.05, -0.05
1186, 0.925, -0.0375, -0.05
1187, 0.925, -0.025, -0.05
1188, 0.925, -0.0125, -0.05
1189, 0.925, 0, -0.05
1190, 0.925, 0.0125, -0.05
1191, 0.925, 0.025, -0.05
1192, 0.925, 0.0375, -0.05
1193, 0.925, 0.05, -0.05
1194, 0.925, 0.05, -0.0375
1195, 0.925, 0.05, -0.025
1196, 0.925, 0.05, -0.0125
1197, 0.925, 0.05, 0
1198, 0.925, 0.05, 0.0125
1199, 0.925, 0.05, 0.025
1200, 0.925, 0.05, 0.0375
1201, 0.925, 0.05, 0.05
1202, 0.925, 0.0375, 0.05
1203, 0.925, 0.025, 0.05
1204, 0.925, 0.0125, 0.05
1205, 0.925, 0, 0.05
1206, 0.925, -0.0125, 0.05
1207, 0.925, -0.025, 0.05
1208, 0.925, -0.0375, 0.05
1209, 0.925, -0.05, 0.05
1210, 0.925, -0.05, 0.0375
1211, 0.925, -0.05, 0.025
1212, 0.925, -0.05, 0.0125
1213, 0.925, -0.05, 0
1214, 0.925, -0.05, -0.0125
1215, 0.925, -0.05, -0.025
1216, 0.925, -0.05, -0.0375
1217, 0.95, -0.05, -0.05
1218, 0.95, -0.0375, -0.05
1219, 0.95, -0.025, -0.05
1220, 0.95, -0.0125, -0.05
1221, 0.95, 0, -0.05
1222, 0.95, 0.0125, -0.05
1223, 0.95, 0.025, -0.05
1224, 0.95, 0.0375, -0.05
1225, 0.95, 0.05, -0.05
1226, 0.95, 0.05, -0.0375
1227, 0.95, 0.05, -0.025
1228, 0.95, 0.05, -0.0125
1229, 0.95, 0.05, 0
1230, 0.95, 0.05, 0.0125
1231, 0.95, 0.05, 0.025
1232, 0.95, 0.05, 0.0375
1233, 0.95, 0.05, 0.05
1234, 0.95, 0.0375, 0.05
1235, 0.95, 0.025, 0.05
1236, 0.95, 0.0125, 0.05
1237, 0.95, 0, 0.05
1238, 0.95, -0.0125, 0.05
1239, 0.95, -0.025, 0.05
1240, 0.95, -0.0375, 0.05
1241, 0.95, -0.05, 0.05
1242, 0.95, -0.05, 0.0375
1243, 0.95, -0.05, 0.025
1244, 0.95, -0.05, 0.0125
1245, 0.95, -0.05, 0
1246, 0.95, -0.05, -0.0125
1247, 0.95, -0.05, -0.025
1248, 0.95, -0.05, -0.0375
1249, 0.975, -0.05, -0.05
1250, 0.975, -0.0375, -0.05
1251, 0.975, -0.025, -0.05
1252, 0.975, -0.0125, -0.05
1253, 0.975, 0, -0.05
1254, 0.975, 0.0125, -0.05
1255, 0.975, 0.025, -0.05
1256, 0.975, 0.0375, -0.05
1257, 0.975, 0.05, -0.05
1258, 0.975, 0.05, -0.0375
1259, 0.975, 0.05, -0.025
1260, 0.975, 0.05, -0.0125
1261, 0.975, 0.05, 0
1262, 0.975, 0.05, 0.0125
1263, 0.975, 0.05, 0.025
1264, 0.975, 0.05, 0.0375
1265, 0.975, 0.05, 0.05
1266, 0.975, 0.0375, 0.05
1267, 0.975, 0.025, 0.05
1268, 0.975, 0.0125, 0.05
1269, 0.975, 0, 0.05
1270, 0.975, -0.0125, 0.05
1271, 0.975, -0.025, 0.05
1272, 0.975, -0.0375, 0.05
1273, 0.975, -0.05, 0.05
1274, 0.975, -0.05, 0.0375
1275, 0.975, -0.05, 0.025
1276, 0.975, -0.05, 0.0125
1277, 0.975, -0.05, 0
1278, 0.975, -0.05, -0.0125
1279, 0.975, -0.05, -0.025
1280, 0.975, -0.05, -0.0375
1281, 1, -0.05, -0.05
1282, 1, -0.0375, -0.05
1283, 1, -0.025, -0.05
1284, 1, -0.0125, -0.05
1285, 1, 0, -0.05
1286, 1, 0.0125, -0.05
1287, 1, 0.025, -0.05
1288, 1, 0.0375, -0.05
1289, 1, 0.05, -0.05
1290, 1, 0.05, -0.0375
1291, 1, 0.05, -0.025
1292, 1, 0.05, -0.0125
1293, 1, 0.05, 0
1294, 1, 0.05, 0.0125
1295, 1, 0.05, 0.025
1296, 1, 0.05, 0.0375
1297, 1, 0.05, 0.05
1298, 1, 0.0375, 0.05
1299, 1, 0.025, 0.05
1300, 1, 0.0125, 0.05
1301, 1, 0, 0.05
1302, 1, -0.0125, 0.05
1303, 1, -0.025, 0.05
1304, 1, -0.0375, 0.05
1305, 1, -0.05, 0.05
1306, 1, -0.05, 0.0375
1307, 1, -0.05, 0.025
1308, 1, -0.05, 0.0125
1309, 1, -0.05, 0
1310, 1, -0.05, -0.0125
1311, 1, -0.05, -0.025
1312, 1, -0.05, -0.0375
*ELEMENT, TYPE=S4R, ELSET=ALL
1, 1, 2, 34, 33
2, 2, 3, 35, 34
3, 3, 4, 36, 35
4, 4, 5, 37, 36
5, 5, 6, 38, 37
6, 6, 7, 39, 38
7, 7, 8, 40, 39
8, 8, 9, 41, 40
9, 9, 10, 42, 41
10, 10, 11, 43, 42
11, 11, 12, 44, 43
12, 12, 13, 45, 44
13, 13, 14, 46, 45
14, 14, 15, 47, 46
15, 15, 16, 48, 47
16, 16, 17, 49, 48
17, 17, 18, 50, 49
18, 18, 19, 51, 50
19, 19, 20, 52, 51
20, 20, 21, 53, 52
21, 21, 22, 54, 53
22, 22, 23, 55, 54
23, 23, 24, 56, 55
24, 24, 25, 57, 56
25, 25, 26, 58, 57
26, 26, 27, 59, 58
27, 27, 28, 60, 59
28, 28, 29, 61, 60
29, 29, 30, 62, 61
30, 30, 31, 63, 62
31, 31, 32, 64, 63
32, 32, 1, 33, 64
33, 33, 34, 66, 65
34, 34, 35, 67, 66
35, 35, 36, 68, 67
36, 36, 37, 69, 68
37, 37, 38, 70, 69
38, 38, 39, 71, 70
39, 39, 40, 72, 71
40, 40, 41, 73, 72
41, 41, 42, 74, 73
42, 42, 43, 75, 74
43, 43, 44, 76, 75
44, 44, 45, 77, 76
45, 45, 46, 78, 77
46, 46, 47, 79, 78
47, 47, 48, 80, 79
48, 48, 49, 81, 80
49, 49, 50, 82, 81
50, 50, 51, 83, 82
51, 51, 52, 84, 83
52, 52, 53, 85, 84
53, 53, 54, 86, 85
54, 54, 55, 87, 86
55, 55, 56, 88, 87
56, 56, 57, 89, 88
57, 57, 58, 90, 89
58, 58, 59, 91, 90
59, 59, 60, 92, 91
60, 60, 61, 93, 92
61, 61, 62, 94, 93
62, 62, 63, 95, 94
63, 63, 64, 96, 95
64, 64, 33, 65, 96
65, 65, 66, 98, 97
66, 66, 67, 99, 98
67, 67, 68, 100, 99
68, 68, 69, 101, 100
69, 69, 70, 102, 101
70, 70, 71, 103, 102
71, 71, 72, 104, 103
72, 72, 73, 105, 104
73, 73, 74, 106, 105
74, 74, 75, 107, 106
75, 75, 76, 108, 107
76, 76, 77, 109, 108
77, 77, 78, 110, 109
78, 78, 79, 111, 110
79, 79, 80, 112, 111
80, 80, 81, 113, 112
81, 81, 82, 114, 113
82, 82, 83, 115, 114
83, 83, 84, 116, 115
84, 84, 85, 117, 116
85, 85, 86, 118, 117
86, 86, 87, 119, 118
87, 87, 88, 120, 119
88, 88, 89, 121, 120
89, 89, 90, 122, 121
90, 90, 91, 123, 122
91, 91, 92, 124, 123
92, 92, 93, 125, 124
93, 93, 94, 126, 125
94, 94, 95, 127, 126
95, 95, 96, 128, 127
96, 96, 65, 97, 128
97, 97, 98, 130, 129
98, 98, 99, 131, 130
99, 99, 100, 132, 131
100, 100, 101, 133, 132
101, 101, 102, 134, 133
102, 102, 103, 135, 134
103, 103, 104, 136, 135
104, 104, 105, 137, 136
105, 105, 106, 138, 137
106, 106, 107, 139, 138
107, 107, 108, 140, 139
108, 108, 109, 141, 140
109, 109, 110, 142, 141
110, 110, 111, 143, 142
111, 111, 112, 144, 143
112, 112, 113, 145, 144
113, 113, 114, 146, 145
114, 114, 115, 147, 146
115, 115, 116, 148, 147
116, 116, 117, 149, 148
117, 117, 118, 150, 149
118, 118, 119, 151, 150
119, 119, 120, 152, 151
120, 120, 121, 153, 152
121, 121, 122, 154, 153
122, 122, 123, 155, 154
123, 123, 124, 156, 155
124, 124, 125, 157, 156
125, 125, 126, 158, 157
126, 126, 127, 159, 158
127, 127, 128, 160, 159
128, 128, 97, 129, 160
129, 129, 130, 162, 161
130, 130, 131, 163, 162
131, 131, 132, 164, 163
132, 132, 133, 165, 164
133, 133, 134, 166, 165
134, 134, 135, 167, 166
135, 135, 136, 168, 167
136, 136, 137, 169, 168
137, 137, 138, 170, 169
138, 138, 139, 171, 170
139, 139, 140, 172, 171
140, 140, 141, 173, 172
141, 141, 142, 174, 173
142, 142, 143, 175, 174
143, 143, 144, 176, 175
144, 144, 145, 177, 176
145, 145, 146, 178, 177
146, 146, 147, 179, 178
147, 147, 148, 180, 179
148, 148, 149, 181, 180
149, 149, 150, 182, 181
150, 150, 151, 183, 182
151, 151, 152, 184, 183
152, 152, 153, 185, 184
153, 153, 154, 186, 185
154, 154, 155, 187, 186
155, 155, 156, 188, 187
156, 156, 157, 189, 188
157, 157, 158, 190, 189
158, 158, 159, 191, 190
159, 159, 160, 192, 191
160, 160, 129, 161, 192
161, 161, 162, 194, 193
162, 162, 163, 195, 194
163, 163, 164, 196, 195
164, 164, 165, 197, 196
165, 165, 166, 198, 197
166, 166, 167, 199, 198
167, 167, 168, 200, 199
168, 168, 169, 201, 200
169, 169, 170, 202, 201
170, 170, 171, 203, 202
171, 171, 172, 204, 203
172, 172, 173, 205, 204
173, 173, 174, 206, 205
174, 174, 175, 207, 206
175, 175, 176, 208, 207
176, 176, 177, 209, 208
177, 177, 178, 210, 209
178, 178, 179, 211, 210
179, 179, 180, 212, 211
180, 180, 181, 213, 212
181, 181, 182, 214, 213
182, 182, 183, 215, 214
183, 183, 184, 216, 215
184, 184, 185, 217, 216
185, 185, 186, 218, 217
186, 186, 187, 219, 218
187, 187, 188, 220, 219
188, 188, 189, 221, 220
189, 189, 190, 222, 221
190, 190, 191, 223, 222
191, 191, 192, 224, 223
192, 192, 161, 193, 224
193, 193, 194, 226, 225
194, 194, 195, 227, 226
195, 195, 196, 228, 227
196, 196, 197, 229, 228
197, 197, 198, 230, 229
198, 198, 199, 231, 230
199, 199, 200, 232, 231
200, 200, 201, 233, 232
201, 201, 202, 234, 233
202, 202, 203, 235, 234
203, 203, 204, 236, 235
204, 204, 205, 237, 236
205, 205, 206, 238, 237
206, 206, 207, 239, 238
207, 207, 208, 240, 239
208, 208, 209, 241, 240
209, 209, 210, 242, 241
210, 210, 211, 243, 242
211, 211, 212, 244, 243
212, 212, 213, 245, 244
213, 213, 214, 246, 245
214, 214, 215, 247, 246
215, 215, 216, 248, 247
216, 216, 217, 249, 248
217, 217, 218, 250, 249
218, 218, 219, 251, 250
219, 219, 220, 252, 251
220, 220, 221, 253, 252
221, 221, 222, 254, 253
222, 222, 223, 255, 254
223, 223, 224, 256, 255
224, 224, 193, 225, 256
225, 225, 226, 258, 257
226, 226, 227, 259, 258
227, 227, 228, 260, 259
228, 228, 229, 261, 260
229, 229, 230, 262, 261
230, 230, 231, 263, 262
231, 231, 232, 264, 263
232, 232, 233, 265, 264
233, 233, 234, 266, 265
234, 234, 235, 267, 266
235, 235, 236, 268, 267
236, 236, 237, 269, 268
237, 237, 238, 270, 269
238, 238, 239, 271, 270
239, 239, 240, 272, 271
240, 240, 241, 273, 272
241, 241, 242, 274, 273
242, 242, 243, 275, 274
243, 243, 244, 276, 275
244, 244, 245, 277, 276
245, 245, 246, 278, 277
246, 246, 247, 279, 278
247, 247, 248, 280, 279
248, 248, 249, 281, 280
249, 249, 250, 282, 281
250, 250, 251, 283, 282
251, 251, 252, 284, 283
252, 252, 253, 285, 284
253, 253, 254, 286, 285
254, 254, 255, 287, 286
255, 255, 256, 288, 287
256, 256, 225, 257, 288
257, 257, 258, 290, 289
258, 258, 259, 291, 290
259, 259, 260, 292, 291
260, 260, 261, 293, 292
261, 261, 262, 294, 293
262, 262, 263, 295, 294
263, 263, 264, 296, 295
264, 264, 265, 297, 296
265, 265, 266, 298, 297
266, 266, 267, 299, 298
267, 267, 268, 300, 299
268, 268, 269, 301, 300
269, 269, 270, 302, 301
270, 270, 271, 303, 302
271, 271, 272, 304, 303
272, 272, 273, 305, 304
273, 273, 274, 306, 305
274, 274, 275, 307, 306
275, 275, 276, 308, 307
276, 276, 277, 309, 308
277, 277, 278, 310, 309
278, 278, 279, 311, 310
279, 279, 280, 312, 311
280, 280, 281, 313, 312
281, 281, 282, 314, 313
282, 282, 283, 315, 314
283, 283, 284, 316, 315
284, 284, 285, 317, 316
285, 285, 286, 318, 317
286, 286, 287, 319, 318
287, 287, 288, 320, 319
288, 288, 257, 289, 320
289, 289, 290, 322, 321
290, 290, 291, 323, 322
291, 291, 292, 324, 323
292, 292, 293, 325, 324
293, 293, 294, 326, 325
294, 294, 295, 327, 326
295, 295, 296, 328, 327
296, 296, 297, 329, 328
297, 297, 298, 330, 329
298, 298, 299, 331, 330
299, 299, 300, 332, 331
300, 300, 301, 333, 332
301, 301, 302, 334, 333
302, 302, 303, 335, 334
303, 303, 304, 336, 335
304, 304, 305, 337, 336
305, 305, 306, 338, 337
306, 306, 307, 339, 338
307, 307, 308, 340, 339
308, 308, 309, 341, 340
309, 309, 310, 342, 341
310, 310, 311, 343, 342
311, 311, 312, 344, 343
312, 312, 313, 345, 344
313, 313, 314, 346, 345
314, 314, 315, 347, 346
315, 315, 316, 348, 347
316, 316, 317, 349, 348
317, 317, 318, 350, 349
318, 318, 319, 351, 350
319, 319, 320, 352, 351
320, 320, 289, 321, 352
321, 321, 322, 354, 353
322, 322, 323, 355, 354
323, 323, 324, 356, 355
324, 324, 325, 357, 356
325, 325, 326, 358, 357
326, 326, 327, 359, 358
327, 327, 328, 360, 359
328, 328, 329, 361, 360
329, 329, 330, 362, 361
330, 330, 331, 363, 362
331, 331, 332, 364, 363
332, 332, 333, 365, 364
333, 333, 334, 366, 365
334, 334, 335, 367, 366
335, 335, 336, 368, 367
336, 336, 337, 369, 368
337, 337, 338, 370, 369
338, 338, 339, 371, 370
339, 339, 340, 372, 371
340, 340, 341, 373, 372
341, 341, 342, 374, 373
342, 342, 343, 375, 374
343, 343, 344, 376, 375
344, 344, 345, 377, 376
345, 345, 346, 378, 377
346, 346, 347, 379, 378
347, 347, 348, 380, 379
348, 348, 349, 381, 380
349, 349, 350, 382, 381
350, 350, 351, 383, 382
351, 351, 352, 384, 383
352, 352, 321, 353, 384
353, 353, 354, 386, 385
354, 354, 355, 387, 386
355, 355, 356, 388, 387
356, 356, 357, 389, 388
357, 357, 358, 390, 389
358, 358, 359, 391, 390
359, 359, 360, 392, 391
360, 360, 361, 393, 392
361, 361, 362, 394, 393
362, 362, 363, 395, 394
363, 363, 364, 396, 395
364, 364, 365, 397, 396
365, 365, 366, 398, 397
366, 366, 367, 399, 398
367, 367, 368, 400, 399
368, 368, 369, 401, 400
369, 369, 370, 402, 401
370, 370, 371, 403, 402
371, 371, 372, 404, 403
372, 372, 373, 405, 404
373, 373, 374, 406, 405
374, 374, 375, 407, 406
375, 375, 376, 408, 407
376, 376, 377, 409, 408
377, 377, 378, 410, 409
378, 378, 379, 411, 410
379, 379, 380, 412, 411
380, 380, 381, 413, 412
381, 381, 382, 414, 413
382, 382, 383, 415, 414
383, 383, 384, 416, 415
384, 384, 353, 385, 416
385, 385, 386, 418, 417
386, 386, 387, 419, 418
387, 387, 388, 420, 419
388, 388, 389, 421, 420
389, 389, 390, 422, 421
390, 390, 391, 423, 422
391, 391, 392, 424, 423
392, 392, 393, 425, 424
393, 393, 394, 426, 425
394, 394, 395, 427, 426
395, 395, 396, 428, 427
396, 396, 397, 429, 428
397, 397, 398, 430, 429
398, 398, 399, 431, 430
399, 399, 400, 432, 431
400, 400, 401, 433, 432
401, 401, 402, 434, 433
402, 402, 403, 435, 434
403, 403, 404, 436, 435
404, 404, 405, 437, 436
405, 405, 406, 438, 437
406, 406, 407, 439, 438
407, 407, 408, 440, 439
408, 408, 409, 441, 440
409, 409, 410, 442, 441
410, 410, 411, 443, 442
411, 411, 412, 444, 443
412, 412, 413, 445, 444
413, 413, 414, 446, 445
414, 414, 415, 447, 446
415, 415, 416, 448, 447
416, 416, 385, 417, 448
417, 417, 418, 450, 449
418, 418, 419, 451, 450
419, 419, 420, 452, 451
420, 420, 421, 453, 452
421, 421, 422, 454, 453
422, 422, 423, 455, 454
423, 423, 424, 456, 455
424, 424, 425, 457, 456
425, 425, 426, 458, 457
426, 426, 427, 459, 458
427, 427, 428, 460, 459
428, 428, 429, 461, 460
429, 429, 430, 462, 461
430, 430, 431, 463, 462
431, 431, 432, 464, 463
432, 432, 433, 465, 464
433, 433, 434, 466, 465
434, 434, 435, 467, 466
435, 435, 436, 468, 467
436, 436, 437, 469, 468
437, 437, 438, 470, 469
438, 438, 439, 471, 470
439, 439, 440, 472, 471
440, 440, 441, 473, 472
441, 441, 442, 474, 473
442, 442, 443, 475, 474
443, 443, 444, 476, 475
444, 444, 445, 477, 476
445, 445, 446, 478, 477
446, 446, 447, 479, 478
447, 447, 448, 480, 479
448, 448, 417, 449, 480
449, 449, 450, 482, 481
450, 450, 451, 483, 482
451, 451, 452, 484, 483
452, 452, 453, 485, 484
453, 453, 454, 486, 485
454, 454, 455, 487, 486
455, 455, 456, 488, 487
456, 456, 457, 489, 488
457, 457, 458, 490, 489
458, 458, 459, 491, 490
459, 459, 460, 492, 491
460, 460, 461, 493, 492
461, 461, 462, 494, 493
462, 462, 463, 495, 494
463, 463, 464, 496, 495
464, 464, 465, 497, 496
465, 465, 466, 498, 497
466, 466, 467, 499, 498
467, 467, 468, 500, 499
468, 468, 469, 501, 500
469, 469, 470, 502, 501
470, 470, 471, 503, 502
471, 471, 472, 504, 503
472, 472, 473, 505, 504
473, 473, 474, 506, 505
474, 474, 475, 507, 506
475, 475, 476, 508, 507
476, 476, 477, 509, 508
477, 477, 478, 510, 509
478, 478, 479, 511, 510
479, 479, 480, 512, 511
480, 480, 449, 481, 512
481, 481, 482, 514, 513
482, 482, 483, 515, 514
483, 483, 484, 516, 515
484, 484, 485, 517, 516
485, 485, 486, 518, 517
486, 486, 487, 519, 518
487, 487, 488, 520, 519
488, 488, 489, 521, 520
489, 489, 490, 522, 521
490, 490, 491, 523, 522
491, 491, 492, 524, 523
492, 492, 493, 525, 524
493, 493, 494, 526, 525
494, 494, 495, 527, 526
495, 495, 496, 528, 527
496, 496, 497, 529, 528
497, 497, 498, 530, 529
498, 498, 499, 531, 530
499, 499, 500, 532, 531
500, 500, 501, 533, 532
501, 501, 502, 534, 533
502, 502, 503, 535, 534
503, 503, 504, 536, 535
504, 504, 505, 537, 536
505, 505, 506, 538, 537
506, 506, 507, 539, 538
507, 507, 508, 540, 539
508, 508, 509, 541, 540
509, 509, 510, 542, 541
510, 510, 511, 543, 542
511, 511, 512, 544, 543
512, 512, 481, 513, 544
513, 513, 514, 546, 545
514, 514, 515, 547, 546
515, 515, 516, 548, 547
516, 516, 517, 549, 548
517, 517, 518, 550, 549
518, 518, 519, 551, 550
519, 519, 520, 552, 551
520, 520, 521, 553, 552
521, 521, 522, 554, 553
522, 522, 523, 555, 554
523, 523, 524, 556, 555
524, 524, 525, 557, 556
525, 525, 526, 558, 557
526, 526, 527, 559, 558
527, 527, 528, 560, 559
528, 528, 529, 561, 560
529, 529, 530, 562, 561
530, 530, 531, 563, 562
531, 531, 532, 564, 563
532, 532, 533, 565, 564
533, 533, 534, 566, 565
534, 534, 535, 567, 566
535, 535, 536, 568, 567
536, 536, 537, 569, 568
537, 537, 538, 570, 569
538, 538, 539, 571, 570
539, 539, 540, 572, 571
540, 540, 541, 573, 572
541, 541, 542, 574, 573
542, 542, 543, 575, 574
543, 543, 544, 576, 575
544, 544, 513, 545, 576
545, 545, 546, 578, 577
546, 546, 547, 579, 578
547, 547, 548, 580, 579
548, 548, 549, 581, 580
549, 549, 550, 582, 581
550, 550, 551, 583, 582
551, 551, 552, 584, 583
552, 552, 553, 585, 584
553, 553, 554, 586, 585
554, 554, 555, 587, 586
555, 555, 556, 588, 587
556, 556, 557, 589, 588
557, 557, 558, 590, 589
558, 558, 559, 591, 590
559, 559, 560, 592, 591
560, 560, 561, 593, 592
561, 561, 562, 594, 593
562, 562, 563, 595, 594
563, 563, 564, 596, 595
564, 564, 565, 597, 596
565, 565, 566, 598, 597
566, 566, 567, 599, 598
567, 567, 568, 600, 599
568, 568, 569, 601, 600
569, 569, 570, 602, 601
570, 570, 571, 603, 602
571, 571, 572, 604, 603
572, 572, 573, 605, 604
573, 573, 574, 606, 605
574, 574, 575, 607, 606
575, 575, 576, 608, 607
576, 576, 545, 577, 608
577, 577, 578, 610, 609
578, 578, 579, 611, 610
579, 579, 580, 612, 611
580, 580, 581, 613, 612
581, 581, 582, 614, 613
582, 582, 583, 615, 614
583, 583, 584, 616, 615
584, 584, 585, 617, 616
585, 585, 586, 618, 617
586, 586, 587, 619, 618
587, 587, 588, 620, 619
588, 588, 589, 621, 620
589, 589, 590, 622, 621
590, 590, 591, 623, 622
591, 591, 592, 624, 623
592, 592, 593, 625, 624
593, 593, 594, 626, 625
594, 594, 595, 627, 626
595, 595, 596, 628, 627
596, 596, 597, 629, 628
597, 597, 598, 630, 629
598, 598, 599, 631, 630
599, 599, 600, 632, 631
600, 600, 601, 633, 632
601, 601, 602, 634, 633
602, 602, 603, 635, 634
603, 603, 604, 636, 635
604, 604, 605, 637, 636
605, 605, 606, 638, 637
606, 606, 607, 639, 638
607, 607, 608, 640, 639
608, 608, 577, 609, 640
609, 609, 610, 642, 641
610, 610, 611, 643, 642
611, 611, 612, 644, 643
612, 612, 613, 645, 644
613, 613, 614, 646, 645
614, 614, 615, 647, 646
615, 615, 616, 648, 647
616, 616, 617, 649, 648
617, 617, 618, 650, 649
618, 618, 619, 651, 650
619, 619, 620, 652, 651
620, 620, 621, 653, 652
621, 621, 622, 654, 653
622, 622, 623, 655, 654
623, 623, 624, 656, 655
624, 624, 625, 657, 656
625, 625, 626, 658, 657
626, 626, 627, 659, 658
627, 627, 628, 660, 659
628, 628, 629, 661, 660
629, 629, 630, 662, 661
630, 630, 631, 663, 662
631, 631, 632, 664, 663
632, 632, 633, 665, 664
633, 633, 634, 666, 665
634, 634, 635, 667, 666
635, 635, 636, 668, 667
636, 636, 637, 669, 668
637, 637, 638, 670, 669
638, 638, 639, 671, 670
639, 639, 640, 672, 671
640, 640, 609, 641, 672
641, 641, 642, 674, 673
642, 642, 643, 675, 674
643, 643, 644, 676, 675
644, 644, 645, 677, 676
645, 645, 646, 678, 677
646, 646, 647, 679, 678
647, 647, 648, 680, 679
648, 648, 649, 681, 680
649, 649, 650, 682, 681
650, 650, 651, 683, 682
651, 651, 652, 684, 683
652, 652, 653, 685, 684
653, 653, 654, 686, 685
654, 654, 655, 687, 686
655, 655, 656, 688, 687
656, 656, 657, 689, 688
657, 657, 658, 690, 689
658, 658, 659, 691, 690
659, 659, 660, 692, 691
660, 660, 661, 693, 692
661, 661, 662, 694, 693
662, 662, 663, 695, 694
663, 663, 664, 696, 695
664, 664, 665, 697, 696
665, 665, 666, 698, 697
666, 666, 667, 699, 698
667, 667, 668, 700, 699
668, 668, 669, 701, 700
669, 669, 670, 702, 701
670, 670, 671, 703, 702
671, 671, 672, 704, 703
672, 672, 641, 673, 704
673, 673, 674, 706, 705
674, 674, 675, 707, 706
675, 675, 676, 708, 707
676, 676, 677, 709, 708
677, 677, 678, 710, 709
678, 678, 679, 711, 710
679, 679, 680, 712, 711
680, 680, 681, 713, 712
681, 681, 682, 714, 713
682, 682, 683, 715, 714
683, 683, 684, 716, 715
684, 684, 685, 717, 716
685, 685, 686, 718, 717
686, 686, 687, 719, 718
687, 687, 688, 720, 719
688, 688, 689, 721, 720
689, 689, 690, 722, 721
690, 690, 691, 723, 722
691, 691, 692, 724, 723
692, 692, 693, 725, 724
693, 693, 694, 726, 725
694, 694, 695, 727, 726
695, 695, 696, 728, 727
696, 696, 697, 729, 728
697, 697, 698, 730, 729
698, 698, 699, 731, 730
699, 699, 700, 732, 731
700, 700, 701, 733, 732
701, 701, 702, 734, 733
702, 702, 703, 735, 734
703, 703, 704, 736, 735
704, 704, 673, 705, 736
705, 705, 706, 738, 737
706, 706, 707, 739, 738
707, 707, 708, 740, 739
708, 708, 709, 741, 740
709, 709, 710, 742, 741
710, 710, 711, 743, 742
711, 711, 712, 744, 743
712, 712, 713, 745, 744
713, 713, 714, 746, 745
714, 714, 715, 747, 746
715, 715, 716, 748, 747
716, 716, 717, 749, 748
717, 717, 718, 750, 749
718, 718, 719, 751, 750
719, 719, 720, 752, 751
720, 720, 721, 753, 752
721, 721, 722, 754, 753
722, 722, 723, 755, 754
723, 723, 724, 756, 755
724, 724, 725, 757, 756
725, 725, 726, 758, 757
726, 726, 727, 759, 758
727, 727, 728, 760, 759
728, 728, 729, 761, 760
729, 729, 730, 762, 761
730, 730, 731, 763, 762
731, 731, 732, 764, 763
732, 732, 733, 765, 764
733, 733, 734, 766, 765
734, 734, 735, 767, 766
735, 735, 736, 768, 767
736, 736, 705, 737, 768
737, 737, 738, 770, 769
738, 738, 739, 771, 770
739, 739, 740, 772, 771
740, 740, 741, 773, 772
741, 741, 742, 774, 773
742, 742, 743, 775, 774
743, 743, 744, 776, 775
744, 744, 745, 777, 776
745, 745, 746, 778, 777
746, 746, 747, 779, 778
747, 747, 748, 780, 779
748, 748, 749, 781, 780
749, 749, 750, 782, 781
750, 750, 751, 783, 782
751, 751, 752, 784, 783
752, 752, 753, 785, 784
753, 753, 754, 786, 785
754, 754, 755, 787, 786
755, 755, 756, 788, 787
756, 756, 757, 789, 788
757, 757, 758, 790, 789
758, 758, 759, 791, 790
759, 759, 760, 792, 791
760, 760, 761, 793, 792
761, 761, 762, 794, 793
762, 762, 763, 795, 794
763, 763, 764, 796, 795
764, 764, 765, 797, 796
765, 765, 766, 798, 797
766, 766, 767, 799, 798
767, 767, 768, 800, 799
768, 768, 737, 769, 800
769, 769, 770, 802, 801
770, 770, 771, 803, 802
771, 771, 772, 804, 803
772, 772, 773, 805, 804
773, 773, 774, 806, 805
774, 774, 775, 807, 806
775, 775, 776, 808, 807
776, 776, 777, 809, 808
777, 777, 778, 810, 809
778, 778, 779, 811, 810
779, 779, 780, 812, 811
780, 780, 781, 813, 812
781, 781, 782, 814, 813
782, 782, 783, 815, 814
783, 783, 784, 816, 815
784, 784, 785, 817, 816
785, 785, 786, 818, 817
786, 786, 787, 819, 818
787, 787, 788, 820, 819
788, 788, 789, 821, 820
789, 789, 790, 822, 821
790, 790, 791, 823, 822
791, 791, 792, 824, 823
792, 792, 793, 825, 824
793, 793, 794, 826, 825
794, 794, 795, 827, 826
795, 795, 796, 828, 827
796, 796, 797, 829, 828
797, 797, 798, 830, 829
798, 798, 799, 831, 830
799, 799, 800, 832, 831
800, 800, 769, 801, 832
801, 801, 802, 834, 833
802, 802, 803, 835, 834
803, 803, 804, 836, 835
804, 804, 805, 837, 836
805, 805, 806, 838, 837
806, 806, 807, 839, 838
807, 807, 808, 840, 839
808, 808, 809, 841, 840
809, 809, 810, 842, 841
810, 810, 811, 843, 842
811, 811, 812, 844, 843
812, 812, 813, 845, 844
813, 813, 814, 846, 845
814, 814, 815, 847, 846
815, 815, 816, 848, 847
816, 816, 817, 849, 848
817, 817, 818, 850, 849
818, 818, 819, 851, 850
819, 819, 820, 852, 851
820, 820, 821, 853, 852
821, 821, 822, 854, 853
822, 822, 823, 855, 854
823, 823, 824, 856, 855
824, 824, 825, 857, 856
825, 825, 826, 858, 857
826, 826, 827, 859, 858
827, 827, 828, 860, 859
828, 828, 829, 861, 860
829, 829, 830, 862, 861
830, 830, 831, 863, 862
831, 831, 832, 864, 863
832, 832, 801, 833, 864
833, 833, 834, 866, 865
834, 834, 835, 867, 866
835, 835, 836, 868, 867
836, 836, 837, 869, 868
837, 837, 838, 870, 869
838, 838, 839, 871, 870
839, 839, 840, 872, 871
840, 840, 841, 873, 872
841, 841, 842, 874, 873
842, 842, 843, 875, 874
843, 843, 844, 876, 875
844, 844, 845, 877, 876
845, 845, 846, 878, 877
846, 846, 847, 879, 878
847, 847, 848, 880, 879
848, 848, 849, 881, 880
849, 849, 850, 882, 881
850, 850, 851, 883, 882
851, 851, 852, 884, 883
852, 852, 853, 885, 884
853, 853, 854, 886, 885
854, 854, 855, 887, 886
855, 855, 856, 888, 887
856, 856, 857, 889, 888
857, 857, 858, 890, 889
858, 858, 859, 891, 890
859, 859, 860, 892, 891
860, 860, 861, 893, 892
861, 861, 862, 894, 893
862, 862, 863, 895, 894
863, 863, 864, 896, 895
864, 864, 833, 865, 896
865, 865, 866, 898, 897
866, 866, 867, 899, 898
867, 867, 868, 900, 899
868, 868, 869, 901, 900
869, 869, 870, 902, 901
870, 870, 871, 903, 902
871, 871, 872, 904, 903
872, 872, 873, 905, 904
873, 873, 874, 906, 905
874, 874, 875, 907, 906
875, 875, 876, 908, 907
876, 876, 877, 909, 908
877, 877, 878, 910, 909
878, 878, 879, 911, 910
879, 879, 880, 912, 911
880, 880, 881, 913, 912
881, 881, 882, 914, 913
882, 882, 883, 915, 914
883, 883, 884, 916, 915
884, 884, 885, 917, 916
885, 885, 886, 918, 917
886, 886, 887, 919, 918
887, 887, 888, 920, 919
888, 888, 889, 921, 920
889, 889, 890, 922, 921
890, 890, 891, 923, 922
891, 891, 892, 924, 923
892, 892, 893, 925, 924
893, 893, 894, 926, 925
894, 894, 895, 927, 926
895, 895, 896, 928, 927
896, 896, 865, 897, 928
897, 897, 898, 930, 929
898, 898, 899, 931, 930
899, 899, 900, 932, 931
900, 900, 901, 933, 932
901, 901, 902, 934, 933
902, 902, 903, 935, 934
903, 903, 904, 936, 935
904, 904, 905, 937, 936
905, 905, 906, 938, 937
906, 906, 907, 939, 938
907, 907, 908, 940, 939
908, 908, 909, 941, 940
909, 909, 910, 942, 941
910, 910, 911, 943, 942
911, 911, 912, 944, 943
912, 912, 913, 945, 944
913, 913, 914, 946, 945
914, 914, 915, 947, 946
915, 915, 916, 948, 947
916, 916, 917, 949, 948
917, 917, 918, 950, 949
918, 918, 919, 951, 950
919, 919, 920, 952, 951
920, 920, 921, 953, 952
921, 921, 922, 954, 953
922, 922, 923, 955, 954
923, 923, 924, 956, 955
924, 924, 925, 957, 956
925, 925, 926, 958, 957
926, 926, 927, 959, 958
927, 927, 928, 960, 959
928, 928, 897, 929, 960
929, 929, 930, 962, 961
930, 930, 931, 963, 962
931, 931, 932, 964, 963
932, 932, 933, 965, 964
933, 933, 934, 966, 965
934, 934, 935, 967, 966
935, 935, 936, 968, 967
936, 936, 937, 969, 968
937, 937, 938, 970, 969
938, 938, 939, 971, 970
939, 939, 940, 972, 971
940, 940, 941, 973, 972
941, 941, 942, 974, 973
942, 942, 943, 975, 974
943, 943, 944, 976, 975
944, 944, 945, 977, 976
945, 945, 946, 978, 977
946, 946, 947, 979, 978
947, 947, 948, 980, 979
948, 948, 949, 981, 980
949, 949, 950, 982, 981
950, 950, 951, 983, 982
951, 951, 952, 984, 983
952, 952, 953, 985, 984
953, 953, 954, 986, 985
954, 954, 955, 987, 986
955, 955, 956, 988, 987
956, 956, 957, 989, 988
957, 957, 958, 990, 989
958, 958, 959, 991, 990
959, 959, 960, 992, 991
960, 960, 929, 961, 992
961, 961, 962, 994, 993
962, 962, 963, 995, 994
963, 963, 964, 996, 995
964, 964, 965, 997, 996
965, 965, 966, 998, 997
966, 966, 967, 999, 998
967, 967, 968, 1000, 999
968, 968, 969, 1001, 1000
969, 969, 970, 1002, 1001
970, 970, 971, 1003, 1002
971, 971, 972, 1004, 1003
972, 972, 973, 1005, 1004
973, 973, 974, 1006, 1005
974, 974, 975, 1007, 1006
975, 975, 976, 1008, 1007
976, 976, 977, 1009, 1008
977, 977, 978, 1010, 1009
978, 978, 979, 1011, 1010
979, 979, 980, 1012, 1011
980, 980, 981, 1013, 1012
981, 981, 982, 1014, 1013
982, 982, 983, 1015, 1014
983, 983, 984, 1016, 1015
984, 984, 985, 1017, 1016
985, 985, 986, 1018, 1017
986, 986, 987, 1019, 1018
987, 987, 988, 1020, 1019
988, 988, 989, 1021, 1020
989, 989, 990, 1022, 1021
990, 990, 991, 1023, 1022
991, 991, 992, 1024, 1023
992, 992, 961, 993, 1024
993, 993, 994, 1026, 1025
994, 994, 995, 1027, 1026
995, 995, 996, 1028, 1027
996, 996, 997, 1029, 1028
997, 997, 998, 1030, 1029
998, 998, 999, 1031, 1030
999, 999, 1000, 1032, 1031
1000, 1000, 1001, 1033, 1032
1001, 1001, 1002, 1034, 1033
1002, 1002, 1003, 1035, 1034
1003, 1003, 1004, 1036, 1035
1004, 1004, 1005, 1037, 1036
1005, 1005, 1006, 1038, 1037
1006, 1006, 1007, 1039, 1038
1007, 1007, 1008, 1040, 1039
1008, 1008, 1009, 1041, 1040
1009, 1009, 1010, 1042, 1041
1010, 1010, 1011, 1043, 1042
1011, 1011, 1012, 1044, 1043
1012, 1012, 1013, 1045, 1044
1013, 1013, 1014, 1046, 1045
1014, 1014, 1015, 1047, 1046
1015, 1015, 1016, 1048, 1047
1016, 1016, 1017, 1049, 1048
1017, 1017, 1018, 1050, 1049
1018, 1018, 1019, 1051, 1050
1019, 1019, 1020, 1052, 1051
1020, 1020, 1021, 1053, 1052
1021, 1021, 1022, 1054, 1053
1022, 1022, 1023, 1055, 1054
1023, 1023, 1024, 1056, 1055
1024, 1024, 993, 1025, 1056
1025, 1025, 1026, 1058, 1057
1026, 1026, 1027, 1059, 1058
1027, 1027, 1028, 1060, 1059
1028, 1028, 1029, 1061, 1060
1029, 1029, 1030, 1062, 1061
1030, 1030, 1031, 1063, 1062
1031, 1031, 1032, 1064, 1063
1032, 1032, 1033, 1065, 1064
1033, 1033, 1034, 1066, 1065
1034, 1034, 1035, 1067, 1066
1035, 1035, 1036, 1068, 1067
1036, 1036, 1037, 1069, 1068
1037, 1037, 1038, 1070, 1069
1038, 1038, 1039, 1071, 1070
1039, 1039, 1040, 1072, 1071
1040, 1040, 1041, 1073, 1072
1041, 1041, 1042, 1074, 1073
1042, 1042, 1043, 1075, 1074
1043, 1043, 1044, 1076, 1075
1044, 1044, 1045, 1077, 1076
1045, 1045, 1046, 1078, 1077
1046, 1046, 1047, 1079, 1078
1047, 1047, 1048, 1080, 1079
1048, 1048, 1049, 1081, 1080
1049, 1049, 1050, 1082, 1081
1050, 1050, 1051, 1083, 1082
1051, 1051, 1052, 1084, 1083
1052, 1052, 1053, 1085, 1084
1053, 1053, 1054, 1086, 1085
1054, 1054, 1055, 1087, 1086
1055, 1055, 1056, 1088, 1087
1056, 1056, 1025, 1057, 1088
1057, 1057, 1058, 1090, 1089
1058, 1058, 1059, 1091, 1090
1059, 1059, 1060, 1092, 1091
1060, 1060, 1061, 1093, 1092
1061, 1061, 1062, 1094, 1093
1062, 1062, 1063, 1095, 1094
1063, 1063, 1064, 1096, 1095
1064, 1064, 1065, 1097, 1096
1065, 1065, 1066, 1098, 1097
1066, 1066, 1067, 1099, 1098
1067, 1067, 1068, 1100, 1099
1068, 1068, 1069, 1101, 1100
1069, 1069, 1070, 1102, 1101
1070, 1070, 1071, 1103, 1102
1071, 1071, 1072, 1104, 1103
1072, 1072, 1073, 1105, 1104
1073, 1073, 1074, 1106, 1105
1074, 1074, 1075, 1107, 1106
1075, 1075, 1076, 1108, 1107
1076, 1076, 1077, 1109, 1108
1077, 1077, 1078, 1110, 1109
1078, 1078, 1079, 1111, 1110
1079, 1079, 1080, 1112, 1111
1080, 1080, 1081, 1113, 1112
1081, 1081, 1082, 1114, 1113
1082, 1082, 1083, 1115, 1114
1083, 1083, 1084, 1116, 1115
1084, 1084, 1085, 1117, 1116
1085, 1085, 1086, 1118, 1117
1086, 1086, 1087, 1119, 1118
1087, 1087, 1088, 1120, 1119
1088, 1088, 1057, 1089, 1120
1089, 1089, 1090, 1122, 1121
1090, 1090, 1091, 1123, 1122
1091, 1091, 1092, 1124, 1123
1092, 1092, 1093, 1125, 1124
1093, 1093, 1094, 1126, 1125
1094, 1094, 1095, 1127, 1126
1095, 1095, 1096, 1128, 1127
1096, 1096, 1097, 1129, 1128
1097, 1097, 1098, 1130, 1129
1098, 1098, 1099, 1131, 1130
1099, 1099, 1100, 1132, 1131
1100, 1100, 1101, 1133, 1132
1101, 1101, 1102, 1134, 1133
1102, 1102, 1103, 1135, 1134
1103, 1103, 1104, 1136, 1135
1104, 1104, 1105, 1137, 1136
1105, 1105, 1106, 1138, 1137
1106, 1106, 1107, 1139, 1138
1107, 1107, 1108, 1140, 1139
1108, 1108, 1109, 1141, 1140
1109, 1109, 1110, 1142, 1141
1110, 1110, 1111, 1143, 1142
1111, 1111, 1112, 1144, 1143
1112, 1112, 1113, 1145, 1144
1113, 1113, 1114, 1146, 1145
1114, 1114, 1115, 1147, 1146
1115, 1115, 1116, 1148, 1147
1116, 1116, 1117, 1149, 1148
1117, 1117, 1118, 1150, 1149
1118, 1118, 1119, 1151, 1150
1119, 1119, 1120, 1152, 1151
1120, 1120, 1089, 1121, 1152
1121, 1121, 1122, 1154, 1153
1122, 1122, 1123, 1155, 1154
1123, 1123, 1124, 1156, 1155
1124, 1124, 1125, 1157, 1156
1125, 1125, 1126, 1158, 1157
1126, 1126, 1127, 1159, 1158
1127, 1127, 1128, 1160, 1159
1128, 1128, 1129, 1161, 1160
1129, 1129, 1130, 1162, 1161
1130, 1130, 1131, 1163, 1162
1131, 1131, 1132, 1164, 1163
1132, 1132, 1133, 1165, 1164
1133, 1133, 1134, 1166, 1165
1134, 1134, 1135, 1167, 1166
1135, 1135, 1136, 1168, 1167
1136, 1136, 1137, 1169, 1168
1137, 1137, 1138, 1170, 1169
1138, 1138, 1139, 1171, 1170
1139, 1139, 1140, 1172, 1171
1140, 1140, 1141, 1173, 1172
1141, 1141, 1142, 1174, 1173
1142, 1142, 1143, 1175, 1174
1143, 1143, 1144, 1176, 1175
1144, 1144, 1145, 1177, 1176
1145, 1145, 1146, 1178, 1177
1146, 1146, 1147, 1179, 1178
1147, 1147, 1148, 1180, 1179
1148, 1148, 1149, 1181, 1180
1149, 1149, 1150, 1182, 1181
1150, 1150, 1151, 1183, 1182
1151, 1151, 1152, 1184, 1183
1152, 1152, 1121, 1153, 1184
1153, 1153, 1154, 1186, 1185
1154, 1154, 1155, 1187, 1186
1155, 1155, 1156, 1188, 1187
1156, 1156, 1157, 1189, 1188
1157, 1157, 1158, 1190, 1189
1158, 1158, 1159, 1191, 1190
1159, 1159, 1160, 1192, 1191
1160, 1160, 1161, 1193, 1192
1161, 1161, 1162, 1194, 1193
1162, 1162, 1163, 1195, 1194
1163, 1163, 1164, 1196, 1195
1164, 1164, 1165, 1197, 1196
1165, 1165, 1166, 1198, 1197
1166, 1166, 1167, 1199, 1198
1167, 1167, 1168, 1200, 1199
1168, 1168, 1169, 1201, 1200
1169, 1169, 1170, 1202, 1201
1170, 1170, 1171, 1203, 1202
1171, 1171, 1172, 1204, 1203
1172, 1172, 1173, 1205, 1204
1173, 1173, 1174, 1206, 1205
1174, 1174, 1175, 1207, 1206
1175, 1175, 1176, 1208, 1207
1176, 1176, 1177, 1209, 1208
1177, 1177, 1178, 1210, 1209
1178, 1178, 1179, 1211, 1210
1179, 1179, 1180, 1212, 1211
1180, 1180, 1181, 1213, 1212
1181, 1181, 1182, 1214, 1213
1182, 1182, 1183, 1215, 1214
1183, 1183, 1184, 1216, 1215
1184, 1184, 1153, 1185, 1216
1185, 1185, 1186, 1218, 1217
1186, 1186, 1187, 1219, 1218
1187, 1187, 1188, 1220, 1219
1188, 1188, 1189, 1221, 1220
1189, 1189, 1190, 1222, 1221
1190, 1190, 1191, 1223, 1222
1191, 1191, 1192, 1224, 1223
1192, 1192, 1193, 1225, 1224
1193, 1193, 1194, 1226, 1225
1194, 1194, 1195, 1227, 1226
1195, 1195, 1196, 1228, 1227
1196, 1196, 1197, 1229, 1228
1197, 1197, 1198, 1230, 1229
1198, 1198, 1199, 1231, 1230
1199, 1199, 1200, 1232, 1231
1200, 1200, 1201, 1233, 1232
1201, 1201, 1202, 1234, 1233
1202, 1202, 1203, 1235, 1234
1203, 1203, 1204, 1236, 1235
1204, 1204, 1205, 1237, 1236
1205, 1205, 1206, 1238, 1237
1206, 1206, 1207, 1239, 1238
1207, 1207, 1208, 1240, 1239
1208, 1208, 1209, 1241, 1240
1209, 1209, 1210, 1242, 1241
1210, 1210, 1211, 1243, 1242
1211, 1211, 1212, 1244, 1243
1212, 1212, 1213, 1245, 1244
1213, 1213, 1214, 1246, 1245
1214, 1214, 1215, 1247, 1246
1215, 1215, 1216, 1248, 1247
1216, 1216, 1185, 1217, 1248
1217, 1217, 1218, 1250, 1249
1218, 1218, 1219, 1251, 1250
1219, 1219, 1220, 1252, 1251
1220, 1220, 1221, 1253, 1252
1221, 1221, 1222, 1254, 1253
1222, 1222, 1223, 1255, 1254
1223, 1223, 1224, 1256, 1255
1224, 1224, 1225, 1257, 1256
1225, 1225, 1226, 1258, 1257
1226, 1226, 1227, 1259, 1258
1227, 1227, 1228, 1260, 1259
1228, 1228, 1229, 1261, 1260
1229, 1229, 1230, 1262, 1261
1230, 1230, 1231, 1263, 1262
1231, 1231, 1232, 1264, 1263
1232, 1232, 1233, 1265, 1264
1233, 1233, 1234, 1266, 1265
1234, 1234, 1235, 1267, 1266
1235, 1235, 1236, 1268, 1267
1236, 1236, 1237, 1269, 1268
1237, 1237, 1238, 1270, 1269
1238, 1238, 1239, 1271, 1270
1239, 1239, 1240, 1272, 1271
1240, 1240, 1241, 1273, 1272
1241, 1241, 1242, 1274, 1273
1242, 1242, 1243, 1275, 1274
1243, 1243, 1244, 1276, 1275
1244, 1244, 1245, 1277, 1276
1245, 1245, 1246, 1278, 1277
1246, 1246, 1247, 1279, 1278
1247, 1247, 1248, 1280, 1279
1248, 1248, 1217, 1249, 1280
1249, 1249, 1250, 1282, 1281
1250, 1250, 1251, 1283, 1282
1251, 1251, 1252, 1284, 1283
1252, 1252, 1253, 1285, 1284
1253, 1253, 1254, 1286, 1285
1254, 1254, 1255, 1287, 1286
1255, 1255, 1256, 1288, 1287
1256, 1256, 1257, 1289, 1288
1257, 1257, 1258, 1290, 1289
1258, 1258, 1259, 1291, 1290
1259, 1259, 1260, 1292, 1291
1260, 1260, 1261, 1293, 1292
1261, 1261, 1262, 1294, 1293
1262, 1262, 1263, 1295, 1294
1263, 1263, 1264, 1296, 1295
1264, 1264, 1265, 1297, 1296
1265, 1265, 1266, 1298, 1297
1266, 1266, 1267, 1299, 1298
1267, 1267, 1268, 1300, 1299
1268, 1268, 1269, 1301, 1300
1269, 1269, 1270, 1302, 1301
1270, 1270, 1271, 1303, 1302
1271, 1271, 1272, 1304, 1303
1272, 1272, 1273, 1305, 1304
1273, 1273, 1274, 1306, 1305
1274, 1274, 1275, 1307, 1306
1275, 1275, 1276, 1308, 1307
1276, 1276, 1277, 1309, 1308
1277, 1277, 1278, 1310, 1309
1278, 1278, 1279, 1311, 1310
1279, 1279, 1280, 1312, 1311
1280, 1280, 1249, 1281, 1312
*NSET, NSET=root
1, 2, 3, 4, 5, 6, 7, 8, 9, 10, 11, 12
13, 14, 15, 16, 17, 18, 19, 20, 21, 22, 23, 24
25, 26, 27, 28, 29, 30, 31, 32
*NSET, NSET=tip
1281, 1282, 1283, 1284, 1285, 1286, 1287, 1288, 1289, 1290, 1291, 1292
1293, 1294, 1295, 1296, 1297, 1298, 1299, 1300, 1301, 1302, 1303, 1304
1305, 1306, 1307, 1308, 1309, 1310, 1311, 1312
*NSET, NSET=tip_corner
1297
*ELSET, ELSET=flanges
1, 2, 3, 4, 5, 6, 7, 8, 17, 18, 19, 20
21, 22, 23, 24, 33, 34, 35, 36, 37, 38, 39, 40
49, 50, 51, 52, 53, 54, 55, 56, 65, 66, 67, 68
69, 70, 71, 72, 81, 82, 83, 84, 85, 86, 87, 88
97, 98, 99, 100, 101, 102, 103, 104, 113, 114, 115, 116
117, 118, 119, 120, 129, 130, 131, 132, 133, 134, 135, 136
145, 146, 147, 148, 149, 150, 151, 152, 161, 162, 163, 164
165, 166, 167, 168, 177, 178, 179, 180, 181, 182, 183, 184
193, 194, 195, 196, 197, 198, 199, 200, 209, 210, 211, 212
213, 214, 215, 216, 225, 226, 227, 228, 229, 230, 231, 232
241, 242, 243, 244, 245, 246, 247, 248, 257, 258, 259, 260
261, 262, 263, 264, 273, 274, 275, 276, 277, 278, 279, 280
289, 290, 291, 292, 293, 294, 295, 296, 305, 306, 307, 308
309, 310, 311, 312, 321, 322, 323, 324, 325, 326, 327, 328
337, 338, 339, 340, 341, 342, 343, 344, 353, 354, 355, 356
357, 358, 359, 360, 369, 370, 371, 372, 373, 374, 375, 376
385, 386, 387, 388, 389, 390, 391, 392, 401, 402, 403, 404
405, 406, 407, 408, 417, 418, 419, 420, 421, 422, 423, 424
433, 434, 435, 436, 437, 438, 439, 440, 449, 450, 451, 452
453, 454, 455, 456, 465, 466, 467, 468, 469, 470, 471, 472
481, 482, 483, 484, 485, 486, 487, 488, 497, 498, 499, 500
501, 502, 503, 504, 513, 514, 515, 516, 517, 518, 519, 520
529, 530, 531, 532, 533, 534, 535, 536, 545, 546, 547, 548
549, 550, 551, 552, 561, 562, 563, 564, 565, 566, 567, 568
577, 578, 579, 580, 581, 582, 583, 584, 593, 594, 595, 596
597, 598, 599, 600, 609, 610, 611, 612, 613, 614, 615, 616
625, 626, 627, 628, 629, 630, 631, 632, 641, 642, 643, 644
645, 646, 647, 648, 657, 658, 659, 660, 661, 662, 663, 664
673, 674, 675, 676, 677, 678, 679, 680, 689, 690, 691, 692
693, 694, 695, 696, 705, 706, 707, 708, 709, 710, 711, 712
721, 722, 723, 724, 725, 726, 727, 728, 737, 738, 739, 740
741, 742, 743, 744, 753, 754, 755, 756, 757, 758, 759, 760
769, 770, 771, 772, 773, 774, 775, 776, 785, 786, 787, 788
789, 790, 791, 792, 801, 802, 803, 804, 805, 806, 807, 808
817, 818, 819, 820, 821, 822, 823, 824, 833, 834, 835, 836
837, 838, 839, 840, 849, 850, 851, 852, 853, 854, 855, 856
865, 866, 867, 868, 869, 870, 871, 872, 881, 882, 883, 884
885, 886, 887, 888, 897, 898, 899, 900, 901, 902, 903, 904
913, 914, 915, 916, 917, 918, 919, 920, 929, 930, 931, 932
933, 934, 935, 936, 945, 946, 947, 948, 949, 950, 951, 952
961, 962, 963, 964, 965, 966, 967, 968, 977, 978, 979, 980
981, 982, 983, 984, 993, 994, 995, 996, 997, 998, 999, 1000
1009, 1010, 1011, 1012, 1013, 1014, 1015, 1016, 1025, 1026, 1027, 1028
1029, 1030, 1031, 1032, 1041, 1042, 1043, 1044, 1045, 1046, 1047, 1048
1057, 1058, 1059, 1060, 1061, 1062, 1063, 1064, 1073, 1074, 1075, 1076
1077, 1078, 1079, 1080, 1089, 1090, 1091, 1092, 1093, 1094, 1095, 1096
1105, 1106, 1107, 1108, 1109, 1110, 1111, 1112, 1121, 1122, 1123, 1124
1125, 1126, 1127, 1128, 1137, 1138, 1139, 1140, 1141, 1142, 1143, 1144
1153, 1154, 1155, 1156, 1157, 1158, 1159, 1160, 1169, 1170, 1171, 1172
1173, 1174, 1175, 1176, 1185, 1186, 1187, 1188, 1189, 1190, 1191, 1192
1201, 1202, 1203, 1204, 1205, 1206, 1207, 1208, 1217, 1218, 1219, 1220
1221, 1222, 1223, 1224, 1233, 1234, 1235, 1236, 1237, 1238, 1239, 1240
1249, 1250, 1251, 1252, 1253, 1254, 1255, 1256, 1265, 1266, 1267, 1268
1269, 1270, 1271, 1272
*ELSET, ELSET=webs
9, 10, 11, 12, 13, 14, 15, 16, 25, 26, 27, 28
29, 30, 31, 32, 41, 42, 43, 44, 45, 46, 47, 48
57, 58, 59, 60, 61, 62, 63, 64, 73, 74, 75, 76
77, 78, 79, 80, 89, 90, 91, 92, 93, 94, 95, 96
105, 106, 107, 108, 109, 110, 111, 112, 121, 122, 123, 124
125, 126, 127, 128, 137, 138, 139, 140, 141, 142, 143, 144
153, 154, 155, 156, 157, 158, 159, 160, 169, 170, 171, 172
173, 174, 175, 176, 185, 186, 187, 188, 189, 190, 191, 192
201, 202, 203, 204, 205, 206, 207, 208, 217, 218, 219, 220
221, 222, 223, 224, 233, 234, 235, 236, 237, 238, 239, 240
249, 250, 251, 252, 253, 254, 255, 256, 265, 266, 267, 268
269, 270, 271, 272, 281, 282, 283, 284, 285, 286, 287, 288
297, 298, 299, 300, 301, 302, 303, 304, 313, 314, 315, 316
317, 318, 319, 320, 329, 330, 331, 332, 333, 334, 335, 336
345, 346, 347, 348, 349, 350, 351, 352, 361, 362, 363, 364
365, 366, 367, 368, 377, 378, 379, 380, 381, 382, 383, 384
393, 394, 395, 396, 397, 398, 399, 400, 409, 410, 411, 412
413, 414, 415, 416, 425, 426, 427, 428, 429, 430, 431, 432
441, 442, 443, 444, 445, 446, 447, 448, 457, 458, 459, 460
461, 462, 463, 464, 473, 474, 475, 476, 477, 478, 479, 480
489, 490, 491, 492, 493, 494, 495, 496, 505, 506, 507, 508
509, 510, 511, 512, 521, 522, 523, 524, 525, 526, 527, 528
537, 538, 539, 540, 541, 542, 543, 544, 553, 554, 555, 556
557, 558, 559, 560, 569, 570, 571, 572, 573, 574, 575, 576
585, 586, 587, 588, 589, 590, 591, 592, 601, 602, 603, 604
605, 606, 607, 608, 617, 618, 619, 620, 621, 622, 623, 624
633, 634, 635, 636, 637, 638, 639, 640, 649, 650, 651, 652
653, 654, 655, 656, 665, 666, 667, 668, 669, 670, 671, 672
681, 682, 683, 684, 685, 686, 687, 688, 697, 698, 699, 700
701, 702, 703, 704, 713, 714, 715, 716, 717, 718, 719, 720
729, 730, 731, 732, 733, 734, 735, 736, 745, 746, 747, 748
749, 750, 751, 752, 761, 762, 763, 764, 765, 766, 767, 768
777, 778, 779, 780, 781, 782, 783, 784, 793, 794, 795, 796
797, 798, 799, 800, 809, 810, 811, 812, 813, 814, 815, 816
825, 826, 827, 828, 829, 830, 831, 832, 841, 842, 843, 844
845, 846, 847, 848, 857, 858, 859, 860, 861, 862, 863, 864
873, 874, 875, 876, 877, 878, 879, 880, 889, 890, 891, 892
893, 894, 895, 896, 905, 906, 907, 908, 909, 910, 911, 912
921, 922, 923, 924, 925, 926, 927, 928, 937, 938, 939, 940
941, 942, 943, 944, 953, 954, 955, 956, 957, 958, 959, 960
969, 970, 971, 972, 973, 974, 975, 976, 985, 986, 987, 988
989, 990, 991, 992, 1001, 1002, 1003, 1004, 1005, 1006, 1007, 1008
1017, 1018, 1019, 1020, 1021, 1022, 1023, 1024, 1033, 1034, 1035, 1036
1037, 1038, 1039, 1040, 1049, 1050, 1051, 1052, 1053, 1054, 1055, 1056
1065, 1066, 1067, 1068, 1069, 1070, 1071, 1072, 1081, 1082, 1083, 1084
1085, 1086, 1087, 1088, 1097, 1098, 1099, 1100, 1101, 1102, 1103, 1104
1113, 1114, 1115, 1116, 1117, 1118, 1119, 1120, 1129, 1130, 1131, 1132
1133, 1134, 1135, 1136, 1145, 1146, 1147, 1148, 1149, 1150, 1151, 1152
1161, 1162, 1163, 1164, 1165, 1166, 1167, 1168, 1177, 1178, 1179, 1180
1181, 1182, 1183, 1184, 1193, 1194, 1195, 1196, 1197, 1198, 1199, 1200
1209, 1210, 1211, 1212, 1213, 1214, 1215, 1216, 1225, 1226, 1227, 1228
1229, 1230, 1231, 1232, 1241, 1242, 1243, 1244, 1245, 1246, 1247, 1248
1257, 1258, 1259, 1260, 1261, 1262, 1263, 1264, 1273, 1274, 1275, 1276
1277, 1278, 1279, 1280
